isodistort-output01                     
   1.00000000000000     
     8.2190324014086116    0.0000000000000000    0.0000000000000000
     0.0000000000000000    7.9927860183142698    0.0000000000000000
     0.0000000000000000    0.0000000000000000   11.7231707191997927
   Co   O    C    H    N 
     4    24    12    32     8
Direct
  0.5000000000000000  0.5000000000000000  0.0000799889999996
  0.5000000000000000  0.5000000000000000  0.5000799889999996
 -0.0000000000000000  0.0000000000000000  0.0000799889999996
 -0.0000000000000000  0.0000000000000000  0.5000799889999996
  0.0747436206781680  0.7668849931299790  0.0660344903855207
  0.9252563793218324  0.2331150068700280  0.5660344903855210
  0.5747436206781676  0.7331150068700210  0.0660344903855207
  0.4252563793218320  0.2668849931299719  0.5660344903855210
  0.5747436206781676  0.7331150068700210  0.4341254886144821
  0.4252563793218320  0.2668849931299719  0.9341254886144748
  0.0747436206781680  0.7668849931299790  0.4341254886144821
  0.9252563793218324  0.2331150068700280  0.9341254886144748
  0.2665624542543521  0.5663579042417437  0.0659849981576356
  0.7334375457456479  0.4336420957582560  0.5659849981576355
  0.7665624542543521  0.9336420957582563  0.0659849981576356
  0.2334375457456481  0.0663579042417439  0.5659849981576355
  0.7665624542543521  0.9336420957582563  0.4341749808423673
  0.2334375457456481  0.0663579042417439  0.9341749808423674
  0.2665624542543521  0.5663579042417437  0.4341749808423673
  0.7334375457456479  0.4336420957582560  0.9341749808423674
  0.9641674314585232  0.8739296795932018  0.8455471198702920
  0.0358325685414769  0.1260703204067981  0.3455471198702919
  0.4641674314585230  0.6260703204067982  0.8455471198702920
  0.5358325685414768  0.3739296795932020  0.3455471198702919
  0.4641674314585230  0.6260702604068004  0.6546129181297122
  0.5358325685414768  0.3739297395931999  0.1546129181297122
  0.9641674314585232  0.8739297395931996  0.6546129181297122
  0.0358325095414756  0.1260702604068002  0.1546129181297122
  0.2050546759337812  0.7011253664470378  0.0282605368829427
  0.7949453240662187  0.2988746335529550  0.5282605958829439
  0.7050546759337813  0.7988746335529622  0.0282605368829427
  0.2949453240662189  0.2011253664470448  0.5282605958829439
  0.7050546759337813  0.7988746335529622  0.4718994421170531
  0.2949453240662189  0.2011253664470448  0.9718994421170531
  0.2050546759337812  0.7011253664470378  0.4718994421170531
  0.7949453240662187  0.2988746335529550  0.9718994421170531
  0.0380219499555986  0.0503353333016147  0.2500799889999996
  0.9619780500444013  0.9496646666983852  0.7500799889999996
  0.5380219499555987  0.4496646666983853  0.2500799889999996
  0.4619780500444086  0.5503353333016148  0.7500799889999996
  0.2683341954031054  0.7666288615124733  0.9582519933730180
  0.7316658045968948  0.2333711384875266  0.4582519933730181
  0.7683341954031052  0.7333711384875267  0.9582519933730180
  0.2316658045968946  0.2666288615124733  0.4582519933730181
  0.7683341954031052  0.7333711384875267  0.5419079856269848
  0.2316658045968946  0.2666288615124733  0.0419079856269848
  0.2683341954031054  0.7666288615124733  0.5419079856269848
  0.7316658045968948  0.2333711384875266  0.0419079856269848
  0.0416056871244542  0.9125294845599745  0.2500799889999996
  0.9583943128755532  0.0874705154400254  0.7500799889999996
  0.5416056871244468  0.5874705154400255  0.2500799889999996
  0.4583943128755458  0.4125294845599745  0.7500799889999996
  0.4673156200784029  0.8629481441231274  0.8188474689665437
  0.5326843799215977  0.1370518558768728  0.3188474689665438
  0.9673156200784023  0.6370518558768726  0.8188474689665437
  0.0326843799215973  0.3629481441231271  0.3188474689665438
  0.9673156200784023  0.6370519148768740  0.6813125100334592
  0.0326843799215973  0.3629480851231258  0.1813125100334591
  0.4673156200784029  0.8629480851231260  0.6813125100334592
  0.5326843799215977  0.1370519148768741  0.1813125100334591
  0.6609177258017342  0.0064413317021480  0.2500799889999996
  0.3390822741982658  0.9935586682978520  0.7500799889999996
  0.1609177258017344  0.4935586682978520  0.2500799889999996
  0.8390822741982658  0.5064413317021480  0.7500799889999996
  0.5558815653498889  0.1427410603089036  0.6800765088562317
  0.4441184346501039  0.8572589396910965  0.1800765088562316
  0.0558815653498961  0.3572589396910962  0.6800765088562317
  0.9441184346501111  0.6427410603089035  0.1800765088562316
  0.0558815653498961  0.3572589396910962  0.8200834701437711
  0.9441184346501111  0.6427410603089035  0.3200834701437714
  0.5558815653498889  0.1427410603089036  0.8200834701437711
  0.4441184346501039  0.8572589396910965  0.3200834701437714
  0.5445934962311084  0.0557661585414971  0.2500799889999996
  0.4554065037688915  0.9442338414585026  0.7500799889999996
  0.0445934962311084  0.4442338414585029  0.2500799889999996
  0.9554065037688916  0.5557661585414974  0.7500799889999996
  0.4173524700292919  0.9310742076598507  0.2500799889999996
  0.5826475299707079  0.0689257923401492  0.7500799889999996
  0.9173524700292921  0.5689257923401493  0.2500799889999996
  0.0826475299707080  0.4310742076598510  0.7500799889999996
 
  0.00000000E+00  0.00000000E+00  0.00000000E+00
  0.00000000E+00  0.00000000E+00  0.00000000E+00
  0.00000000E+00  0.00000000E+00  0.00000000E+00
  0.00000000E+00  0.00000000E+00  0.00000000E+00
  0.00000000E+00  0.00000000E+00  0.00000000E+00
  0.00000000E+00  0.00000000E+00  0.00000000E+00
  0.00000000E+00  0.00000000E+00  0.00000000E+00
  0.00000000E+00  0.00000000E+00  0.00000000E+00
  0.00000000E+00  0.00000000E+00  0.00000000E+00
  0.00000000E+00  0.00000000E+00  0.00000000E+00
  0.00000000E+00  0.00000000E+00  0.00000000E+00
  0.00000000E+00  0.00000000E+00  0.00000000E+00
  0.00000000E+00  0.00000000E+00  0.00000000E+00
  0.00000000E+00  0.00000000E+00  0.00000000E+00
  0.00000000E+00  0.00000000E+00  0.00000000E+00
  0.00000000E+00  0.00000000E+00  0.00000000E+00
  0.00000000E+00  0.00000000E+00  0.00000000E+00
  0.00000000E+00  0.00000000E+00  0.00000000E+00
  0.00000000E+00  0.00000000E+00  0.00000000E+00
  0.00000000E+00  0.00000000E+00  0.00000000E+00
  0.00000000E+00  0.00000000E+00  0.00000000E+00
  0.00000000E+00  0.00000000E+00  0.00000000E+00
  0.00000000E+00  0.00000000E+00  0.00000000E+00
  0.00000000E+00  0.00000000E+00  0.00000000E+00
  0.00000000E+00  0.00000000E+00  0.00000000E+00
  0.00000000E+00  0.00000000E+00  0.00000000E+00
  0.00000000E+00  0.00000000E+00  0.00000000E+00
  0.00000000E+00  0.00000000E+00  0.00000000E+00
  0.00000000E+00  0.00000000E+00  0.00000000E+00
  0.00000000E+00  0.00000000E+00  0.00000000E+00
  0.00000000E+00  0.00000000E+00  0.00000000E+00
  0.00000000E+00  0.00000000E+00  0.00000000E+00
  0.00000000E+00  0.00000000E+00  0.00000000E+00
  0.00000000E+00  0.00000000E+00  0.00000000E+00
  0.00000000E+00  0.00000000E+00  0.00000000E+00
  0.00000000E+00  0.00000000E+00  0.00000000E+00
  0.00000000E+00  0.00000000E+00  0.00000000E+00
  0.00000000E+00  0.00000000E+00  0.00000000E+00
  0.00000000E+00  0.00000000E+00  0.00000000E+00
  0.00000000E+00  0.00000000E+00  0.00000000E+00
  0.00000000E+00  0.00000000E+00  0.00000000E+00
  0.00000000E+00  0.00000000E+00  0.00000000E+00
  0.00000000E+00  0.00000000E+00  0.00000000E+00
  0.00000000E+00  0.00000000E+00  0.00000000E+00
  0.00000000E+00  0.00000000E+00  0.00000000E+00
  0.00000000E+00  0.00000000E+00  0.00000000E+00
  0.00000000E+00  0.00000000E+00  0.00000000E+00
  0.00000000E+00  0.00000000E+00  0.00000000E+00
  0.00000000E+00  0.00000000E+00  0.00000000E+00
  0.00000000E+00  0.00000000E+00  0.00000000E+00
  0.00000000E+00  0.00000000E+00  0.00000000E+00
  0.00000000E+00  0.00000000E+00  0.00000000E+00
  0.00000000E+00  0.00000000E+00  0.00000000E+00
  0.00000000E+00  0.00000000E+00  0.00000000E+00
  0.00000000E+00  0.00000000E+00  0.00000000E+00
  0.00000000E+00  0.00000000E+00  0.00000000E+00
  0.00000000E+00  0.00000000E+00  0.00000000E+00
  0.00000000E+00  0.00000000E+00  0.00000000E+00
  0.00000000E+00  0.00000000E+00  0.00000000E+00
  0.00000000E+00  0.00000000E+00  0.00000000E+00
  0.00000000E+00  0.00000000E+00  0.00000000E+00
  0.00000000E+00  0.00000000E+00  0.00000000E+00
  0.00000000E+00  0.00000000E+00  0.00000000E+00
  0.00000000E+00  0.00000000E+00  0.00000000E+00
  0.00000000E+00  0.00000000E+00  0.00000000E+00
  0.00000000E+00  0.00000000E+00  0.00000000E+00
  0.00000000E+00  0.00000000E+00  0.00000000E+00
  0.00000000E+00  0.00000000E+00  0.00000000E+00
  0.00000000E+00  0.00000000E+00  0.00000000E+00
  0.00000000E+00  0.00000000E+00  0.00000000E+00
  0.00000000E+00  0.00000000E+00  0.00000000E+00
  0.00000000E+00  0.00000000E+00  0.00000000E+00
  0.00000000E+00  0.00000000E+00  0.00000000E+00
  0.00000000E+00  0.00000000E+00  0.00000000E+00
  0.00000000E+00  0.00000000E+00  0.00000000E+00
  0.00000000E+00  0.00000000E+00  0.00000000E+00
  0.00000000E+00  0.00000000E+00  0.00000000E+00
  0.00000000E+00  0.00000000E+00  0.00000000E+00
  0.00000000E+00  0.00000000E+00  0.00000000E+00
  0.00000000E+00  0.00000000E+00  0.00000000E+00
