isodistort-output01                     
   1.00000000000000     
     8.2178805992203419    0.0000000235860459    0.0000000000000000
     0.0000010083235568    7.9921620044533430    0.0000000000000000
     0.0000000000000000    0.0000000000000000   11.7250853438221370
   Co   O    C    H    N 
     4    24    12    32     8
Direct
  0.5000000000000000  0.5000000000000000  0.0000799889999996
  0.5000000000000000  0.5000000000000000  0.5000799889999996
 -0.0000000000000000 -0.0000000000000000  0.0000799889999996
 -0.0000000000000000 -0.0000000000000000  0.5000799889999996
  0.0744413213759562  0.7668648699870044  0.0659644520441802
  0.9255586786240438  0.2331351300129960  0.5659644520441799
  0.5744412268566443  0.7331354740774800  0.0659645513404346
  0.4255587731433562  0.2668645259225196  0.5659645513404342
  0.5744412268566443  0.7331354740774800  0.4341954276595608
  0.4255587731433562  0.2668645259225196  0.9341954276595615
  0.0744413213759562  0.7668648699870044  0.4341955269558156
  0.9255586786240438  0.2331351300129960  0.9341955269558159
  0.2662788190309306  0.5663103712351251  0.0660385351847503
  0.7337211809690696  0.4336896287648754  0.5660385351847501
  0.7662791359342412  0.9336896171759860  0.0660385754372895
  0.2337208640657589  0.0663103828240137  0.5660385754372901
  0.7662791359342412  0.9336896171759860  0.4341214035627134
  0.2337208640657589  0.0663103828240137  0.9341214035627128
  0.2662788190309306  0.5663103712351251  0.4341214438152526
  0.7337211809690696  0.4336896287648754  0.9341214438152527
  0.9640730435160315  0.8742249152061237  0.8455312144949343
  0.0359269564839684  0.1257750847938762  0.3455312144949342
  0.4640731338466416  0.6257750400417077  0.8455312515397768
  0.5359268661533582  0.3742249599582917  0.3455312515397760
  0.4640731338466416  0.6257749800417098  0.6546287864602274
  0.5359268661533582  0.3742250199582896  0.1546287864602281
  0.9640730435160315  0.8742249752061215  0.6546288235050699
  0.0359268974839671  0.1257750247938783  0.1546288235050700
  0.2048618775357379  0.7011033407343539  0.0283033143002343
  0.7951381224642624  0.2988966592656530  0.5283033733002355
  0.7048620042238668  0.7988967511205974  0.0283033710983812
  0.2951379957761336  0.2011032488794025  0.5283034300983827
  0.7048620042238668  0.7988967511205974  0.4718566079016144
  0.2951379957761336  0.2011032488794025  0.9718566079016144
  0.2048618775357379  0.7011033407343539  0.4718566646997615
  0.7951381224642624  0.2988966592656530  0.9718566646997616
  0.0380510359862988  0.0500383482413400  0.2500799889999996
  0.9619489640137012  0.9499616517586599  0.7500799889999996
  0.5380510069421568  0.4499618748263976  0.2500799889999996
  0.4619489930578363  0.5500381251736024  0.7500799889999996
  0.2682746796193717  0.7666596871701734  0.9583811463259017
  0.7317253203806282  0.2333403128298268  0.4583811463259018
  0.7682745954598598  0.7333401687638065  0.9583812602347757
  0.2317254045401405  0.2666598312361862  0.4583812602347759
  0.7682745954598598  0.7333401687638065  0.5417787187652272
  0.2317254045401405  0.2666598312361862  0.0417787187652268
  0.2682746796193717  0.7666596871701734  0.5417788326741012
  0.7317253203806282  0.2333403128298268  0.0417788326741012
  0.0415072675990618  0.9122202698387563  0.2500799889999996
  0.9584927324009387  0.0877797301612441  0.7500799889999996
  0.5415072905955626  0.5877797768739016  0.2500799889999996
  0.4584927094044376  0.4122202231260984  0.7500799889999996
  0.4673420166779549  0.8626677916302170  0.8188466190110437
  0.5326579833220453  0.1373322083697832  0.3188466190110436
  0.9673418456991683  0.6373321259460094  0.8188465710207432
  0.0326581543008319  0.3626678740539906  0.3188465710207429
  0.9673418456991683  0.6373321849460107  0.6813134079792597
  0.0326581543008319  0.3626678150539893  0.1813134079792599
  0.4673420166779549  0.8626677326302157  0.6813133599889591
  0.5326579833220453  0.1373322673697845  0.1813133599889592
  0.6609574618433564  0.0067831007489574  0.2500799889999996
  0.3390425381566434  0.9932168992510427  0.7500799889999996
  0.1609576449765063  0.4932170051616905  0.2500799889999996
  0.8390423550234940  0.5067829948383089  0.7500799889999996
  0.5557955981417386  0.1425097575302703  0.6800768551981650
  0.4442044018582605  0.8574902424697296  0.1800768551981649
  0.0557955690946618  0.3574901630817148  0.6800768797159786
  0.9442044309053383  0.6425098369182848  0.1800768797159789
  0.0557955690946618  0.3574901630817148  0.8200830992840242
  0.9442044309053383  0.6425098369182848  0.3200830992840236
  0.5557955981417386  0.1425097575302703  0.8200831238018379
  0.4442044018582605  0.8574902424697296  0.3200831238018378
  0.5445980229012741  0.0560640829356673  0.2500799889999996
  0.4554019770987262  0.9439359170643326  0.7500799889999996
  0.0445979984529933  0.4439358324477911  0.2500799889999996
  0.9554020015470065  0.5560641675522088  0.7500799889999996
  0.4174166479071060  0.9312860698373956  0.2500799889999996
  0.5825833520928946  0.0687139301626042  0.7500799889999996
  0.9174168024187668  0.5687140024978364  0.2500799889999996
  0.0825831975812327  0.4312859975021633  0.7500799889999996
 
  0.00000000E+00  0.00000000E+00  0.00000000E+00
  0.00000000E+00  0.00000000E+00  0.00000000E+00
  0.00000000E+00  0.00000000E+00  0.00000000E+00
  0.00000000E+00  0.00000000E+00  0.00000000E+00
  0.00000000E+00  0.00000000E+00  0.00000000E+00
  0.00000000E+00  0.00000000E+00  0.00000000E+00
  0.00000000E+00  0.00000000E+00  0.00000000E+00
  0.00000000E+00  0.00000000E+00  0.00000000E+00
  0.00000000E+00  0.00000000E+00  0.00000000E+00
  0.00000000E+00  0.00000000E+00  0.00000000E+00
  0.00000000E+00  0.00000000E+00  0.00000000E+00
  0.00000000E+00  0.00000000E+00  0.00000000E+00
  0.00000000E+00  0.00000000E+00  0.00000000E+00
  0.00000000E+00  0.00000000E+00  0.00000000E+00
  0.00000000E+00  0.00000000E+00  0.00000000E+00
  0.00000000E+00  0.00000000E+00  0.00000000E+00
  0.00000000E+00  0.00000000E+00  0.00000000E+00
  0.00000000E+00  0.00000000E+00  0.00000000E+00
  0.00000000E+00  0.00000000E+00  0.00000000E+00
  0.00000000E+00  0.00000000E+00  0.00000000E+00
  0.00000000E+00  0.00000000E+00  0.00000000E+00
  0.00000000E+00  0.00000000E+00  0.00000000E+00
  0.00000000E+00  0.00000000E+00  0.00000000E+00
  0.00000000E+00  0.00000000E+00  0.00000000E+00
  0.00000000E+00  0.00000000E+00  0.00000000E+00
  0.00000000E+00  0.00000000E+00  0.00000000E+00
  0.00000000E+00  0.00000000E+00  0.00000000E+00
  0.00000000E+00  0.00000000E+00  0.00000000E+00
  0.00000000E+00  0.00000000E+00  0.00000000E+00
  0.00000000E+00  0.00000000E+00  0.00000000E+00
  0.00000000E+00  0.00000000E+00  0.00000000E+00
  0.00000000E+00  0.00000000E+00  0.00000000E+00
  0.00000000E+00  0.00000000E+00  0.00000000E+00
  0.00000000E+00  0.00000000E+00  0.00000000E+00
  0.00000000E+00  0.00000000E+00  0.00000000E+00
  0.00000000E+00  0.00000000E+00  0.00000000E+00
  0.00000000E+00  0.00000000E+00  0.00000000E+00
  0.00000000E+00  0.00000000E+00  0.00000000E+00
  0.00000000E+00  0.00000000E+00  0.00000000E+00
  0.00000000E+00  0.00000000E+00  0.00000000E+00
  0.00000000E+00  0.00000000E+00  0.00000000E+00
  0.00000000E+00  0.00000000E+00  0.00000000E+00
  0.00000000E+00  0.00000000E+00  0.00000000E+00
  0.00000000E+00  0.00000000E+00  0.00000000E+00
  0.00000000E+00  0.00000000E+00  0.00000000E+00
  0.00000000E+00  0.00000000E+00  0.00000000E+00
  0.00000000E+00  0.00000000E+00  0.00000000E+00
  0.00000000E+00  0.00000000E+00  0.00000000E+00
  0.00000000E+00  0.00000000E+00  0.00000000E+00
  0.00000000E+00  0.00000000E+00  0.00000000E+00
  0.00000000E+00  0.00000000E+00  0.00000000E+00
  0.00000000E+00  0.00000000E+00  0.00000000E+00
  0.00000000E+00  0.00000000E+00  0.00000000E+00
  0.00000000E+00  0.00000000E+00  0.00000000E+00
  0.00000000E+00  0.00000000E+00  0.00000000E+00
  0.00000000E+00  0.00000000E+00  0.00000000E+00
  0.00000000E+00  0.00000000E+00  0.00000000E+00
  0.00000000E+00  0.00000000E+00  0.00000000E+00
  0.00000000E+00  0.00000000E+00  0.00000000E+00
  0.00000000E+00  0.00000000E+00  0.00000000E+00
  0.00000000E+00  0.00000000E+00  0.00000000E+00
  0.00000000E+00  0.00000000E+00  0.00000000E+00
  0.00000000E+00  0.00000000E+00  0.00000000E+00
  0.00000000E+00  0.00000000E+00  0.00000000E+00
  0.00000000E+00  0.00000000E+00  0.00000000E+00
  0.00000000E+00  0.00000000E+00  0.00000000E+00
  0.00000000E+00  0.00000000E+00  0.00000000E+00
  0.00000000E+00  0.00000000E+00  0.00000000E+00
  0.00000000E+00  0.00000000E+00  0.00000000E+00
  0.00000000E+00  0.00000000E+00  0.00000000E+00
  0.00000000E+00  0.00000000E+00  0.00000000E+00
  0.00000000E+00  0.00000000E+00  0.00000000E+00
  0.00000000E+00  0.00000000E+00  0.00000000E+00
  0.00000000E+00  0.00000000E+00  0.00000000E+00
  0.00000000E+00  0.00000000E+00  0.00000000E+00
  0.00000000E+00  0.00000000E+00  0.00000000E+00
  0.00000000E+00  0.00000000E+00  0.00000000E+00
  0.00000000E+00  0.00000000E+00  0.00000000E+00
  0.00000000E+00  0.00000000E+00  0.00000000E+00
  0.00000000E+00  0.00000000E+00  0.00000000E+00
