isodistort-output01                     
   1.00000000000000     
     8.2191866415676387    0.0000000000000000    0.00000000000000
     0.0000000000000000    7.9930352312189941    0.0000000000000000
     0.0000000000000000    0.0000000000000000   11.7225145538053077
   Co   O    C    H    N 
     4    24    12    32     8
Direct
  0.5000000000000000  0.5000000000000000  0.0000799889999996
  0.5000000000000000  0.5000000000000000  0.5000799889999996
  0.0000000000000000 -0.0000000000000000  0.0000799889999996
  0.0000000000000000 -0.0000000000000000  0.5000799889999996
  0.0746249842966212  0.7668460672235612  0.0660451512295838
  0.9253753304269600  0.2331541745423267  0.5660451607950390
  0.5746249842966212  0.7331539327764388  0.0660451512295838
  0.4253753304269597  0.2668458254576732  0.5660451607950390
  0.5746246695730400  0.7331541745423266  0.4341148182049569
  0.4253750157033787  0.2668460672235614  0.9341148277704123
  0.0746246695730402  0.7668458254576734  0.4341148182049569
  0.9253750157033788  0.2331539327764386  0.9341148277704123
  0.2665083712991008  0.5663897509987050  0.0660761230950331
  0.7334920368268417  0.4336111708932698  0.5660753956165644
  0.7665083712991003  0.9336102490012950  0.0660761230950331
  0.2334920368268418  0.0663888291067304  0.5660753956165644
  0.7665079631731583  0.9336111708932694  0.4340845833834387
  0.2334916287008992  0.0663897509987054  0.9340838559049695
  0.2665079631731582  0.5663888291067306  0.4340845833834387
  0.7334916287008997  0.4336102490012946  0.9340838559049695
  0.9640798246290527  0.8741001645803270  0.8455522176185484
  0.0359212587166818  0.1258996424197392  0.3455524018287050
  0.4640798246290527  0.6258998354196730  0.8455522176185484
  0.5359212587166817  0.3741003575802609  0.3455524018287050
  0.4640787412833253  0.6258995824197413  0.6546076361712994
  0.5359201753709473  0.3741002245803321  0.1546078203814559
  0.9640787412833183  0.8741004175802587  0.6546076361712994
  0.0359201163709459  0.1258997754196681  0.1546078203814559
  0.2050669394605497  0.7011964445051424  0.0283854263694338
  0.7949330100885686  0.2988035436210832  0.5283852403859767
  0.7050669394605495  0.7988035554948576  0.0283854263694338
  0.2949330100885686  0.2011964563789169  0.5283852403859767
  0.7050669899114314  0.7988035436210831  0.4717747976140134
  0.2949330605394501  0.2011964445051422  0.9717745526305620
  0.2050669899114314  0.7011964563789169  0.4717747976140134
  0.7949330605394505  0.2988035554948578  0.9717745526305620
  0.0380653356968933  0.0501676955576499  0.2500800475692728
  0.9619346643031068  0.9498323044423499  0.7500799304307266
  0.5380653356968932  0.4498323044423501  0.2500800475692728
  0.4619346643031068  0.5501676955576501  0.7500799304307266
  0.2684928232574226  0.7668614907937703  0.9585062193382976
  0.7315072204701809  0.2331376589427397  0.4585069183559680
  0.7684928232574156  0.7331385092062297  0.9585062193382976
  0.2315072204701808  0.2668623410572604  0.4585069183559680
  0.7684927795298191  0.7331376589427397  0.5416530606440346
  0.2315071767425772  0.2668614907937702  0.0416537596617053
  0.2684927795298193  0.7668623410572603  0.5416530606440346
  0.7315071767425844  0.2331385092062297  0.0416537596617053
  0.0415657615346703  0.9123677692439245  0.2500798973963074
  0.9584342384653227  0.0876322307560756  0.7500800806036985
  0.5415657615346773  0.5876322307560755  0.2500798973963074
  0.4584342384653226  0.4123677692439245  0.7500800806036985
  0.4673752276393603  0.8628355342015032  0.8188597186393480
  0.5326308055565219  0.1371585692723830  0.3188616861767116
  0.9673752276393600  0.6371644657984968  0.8188597186393480
  0.0326308055565220  0.3628414307276100  0.3188616861767116
  0.9673691944434781  0.6371586282723917  0.6812982928232842
  0.0326247723606398  0.3628354752015018  0.1813002603606550
  0.4673691944434781  0.8628413717276083  0.6812982928232842
  0.5326247723606400  0.1371645247984982  0.1813002603606550
  0.6608842412387267  0.0066029166647231  0.2500751394160667
  0.3391157587612731  0.9933970833352772  0.7500848385839322
  0.1608842412387268  0.4933970833352769  0.2500751394160667
  0.8391157587612733  0.5066029166647228  0.7500848385839322
  0.5558656832972209  0.1426215089267961  0.6800675460943925
  0.4441324904604227  0.8573787385602206  0.1800673920446773
  0.0558656832972209  0.3573784910732040  0.6800675460943925
  0.9441324904604157  0.6426212614397794  0.1800673920446773
  0.0558675095395773  0.3573787385602203  0.8200925869553255
  0.9441343167027791  0.6426215089267961  0.3200924329056105
  0.5558675095395843  0.1426212614397796  0.8200925869553255
  0.4441343167027791  0.8573784910732039  0.3200924329056105
  0.5445480387938889  0.0559025827965807  0.2500792521171649
  0.4554519612061114  0.9440974172034193  0.7500807258828343
  0.0445480387938886  0.4440974172034193  0.2500792521171649
  0.9554519612061111  0.5559025827965807  0.7500807258828343
  0.4173415185250819  0.9311755854020879  0.2500801448729860
  0.5826584814749184  0.0688244145979124  0.7500798331270130
  0.9173415185250816  0.5688244145979121  0.2500801448729860
  0.0826584814749181  0.4311755854020876  0.7500798331270130
 
  0.00000000E+00  0.00000000E+00  0.00000000E+00
  0.00000000E+00  0.00000000E+00  0.00000000E+00
  0.00000000E+00  0.00000000E+00  0.00000000E+00
  0.00000000E+00  0.00000000E+00  0.00000000E+00
  0.00000000E+00  0.00000000E+00  0.00000000E+00
  0.00000000E+00  0.00000000E+00  0.00000000E+00
  0.00000000E+00  0.00000000E+00  0.00000000E+00
  0.00000000E+00  0.00000000E+00  0.00000000E+00
  0.00000000E+00  0.00000000E+00  0.00000000E+00
  0.00000000E+00  0.00000000E+00  0.00000000E+00
  0.00000000E+00  0.00000000E+00  0.00000000E+00
  0.00000000E+00  0.00000000E+00  0.00000000E+00
  0.00000000E+00  0.00000000E+00  0.00000000E+00
  0.00000000E+00  0.00000000E+00  0.00000000E+00
  0.00000000E+00  0.00000000E+00  0.00000000E+00
  0.00000000E+00  0.00000000E+00  0.00000000E+00
  0.00000000E+00  0.00000000E+00  0.00000000E+00
  0.00000000E+00  0.00000000E+00  0.00000000E+00
  0.00000000E+00  0.00000000E+00  0.00000000E+00
  0.00000000E+00  0.00000000E+00  0.00000000E+00
  0.00000000E+00  0.00000000E+00  0.00000000E+00
  0.00000000E+00  0.00000000E+00  0.00000000E+00
  0.00000000E+00  0.00000000E+00  0.00000000E+00
  0.00000000E+00  0.00000000E+00  0.00000000E+00
  0.00000000E+00  0.00000000E+00  0.00000000E+00
  0.00000000E+00  0.00000000E+00  0.00000000E+00
  0.00000000E+00  0.00000000E+00  0.00000000E+00
  0.00000000E+00  0.00000000E+00  0.00000000E+00
  0.00000000E+00  0.00000000E+00  0.00000000E+00
  0.00000000E+00  0.00000000E+00  0.00000000E+00
  0.00000000E+00  0.00000000E+00  0.00000000E+00
  0.00000000E+00  0.00000000E+00  0.00000000E+00
  0.00000000E+00  0.00000000E+00  0.00000000E+00
  0.00000000E+00  0.00000000E+00  0.00000000E+00
  0.00000000E+00  0.00000000E+00  0.00000000E+00
  0.00000000E+00  0.00000000E+00  0.00000000E+00
  0.00000000E+00  0.00000000E+00  0.00000000E+00
  0.00000000E+00  0.00000000E+00  0.00000000E+00
  0.00000000E+00  0.00000000E+00  0.00000000E+00
  0.00000000E+00  0.00000000E+00  0.00000000E+00
  0.00000000E+00  0.00000000E+00  0.00000000E+00
  0.00000000E+00  0.00000000E+00  0.00000000E+00
  0.00000000E+00  0.00000000E+00  0.00000000E+00
  0.00000000E+00  0.00000000E+00  0.00000000E+00
  0.00000000E+00  0.00000000E+00  0.00000000E+00
  0.00000000E+00  0.00000000E+00  0.00000000E+00
  0.00000000E+00  0.00000000E+00  0.00000000E+00
  0.00000000E+00  0.00000000E+00  0.00000000E+00
  0.00000000E+00  0.00000000E+00  0.00000000E+00
  0.00000000E+00  0.00000000E+00  0.00000000E+00
  0.00000000E+00  0.00000000E+00  0.00000000E+00
  0.00000000E+00  0.00000000E+00  0.00000000E+00
  0.00000000E+00  0.00000000E+00  0.00000000E+00
  0.00000000E+00  0.00000000E+00  0.00000000E+00
  0.00000000E+00  0.00000000E+00  0.00000000E+00
  0.00000000E+00  0.00000000E+00  0.00000000E+00
  0.00000000E+00  0.00000000E+00  0.00000000E+00
  0.00000000E+00  0.00000000E+00  0.00000000E+00
  0.00000000E+00  0.00000000E+00  0.00000000E+00
  0.00000000E+00  0.00000000E+00  0.00000000E+00
  0.00000000E+00  0.00000000E+00  0.00000000E+00
  0.00000000E+00  0.00000000E+00  0.00000000E+00
  0.00000000E+00  0.00000000E+00  0.00000000E+00
  0.00000000E+00  0.00000000E+00  0.00000000E+00
  0.00000000E+00  0.00000000E+00  0.00000000E+00
  0.00000000E+00  0.00000000E+00  0.00000000E+00
  0.00000000E+00  0.00000000E+00  0.00000000E+00
  0.00000000E+00  0.00000000E+00  0.00000000E+00
  0.00000000E+00  0.00000000E+00  0.00000000E+00
  0.00000000E+00  0.00000000E+00  0.00000000E+00
  0.00000000E+00  0.00000000E+00  0.00000000E+00
  0.00000000E+00  0.00000000E+00  0.00000000E+00
  0.00000000E+00  0.00000000E+00  0.00000000E+00
  0.00000000E+00  0.00000000E+00  0.00000000E+00
  0.00000000E+00  0.00000000E+00  0.00000000E+00
  0.00000000E+00  0.00000000E+00  0.00000000E+00
  0.00000000E+00  0.00000000E+00  0.00000000E+00
  0.00000000E+00  0.00000000E+00  0.00000000E+00
  0.00000000E+00  0.00000000E+00  0.00000000E+00
  0.00000000E+00  0.00000000E+00  0.00000000E+00
