Generated by VASPKIT code
 1.000000
    7.8141407967000003    0.0000000000000000    0.0000000000000000
    0.0000000000000000    8.9934797287000006    0.0000000000000000
    0.0000000000000000    0.0000000000000000   11.6773090363000005
   Mn   O    C    H    N 
     4    24    12    32     8
Cartesian
    7.8010911581270888    0.4438282336048247   10.3779747430578091     Mn1
    0.0130496151304890    8.5496512972386220    4.5393202249078088     Mn2
    3.9201200369229112    4.9405682958113797   10.3779747430578091     Mn3
    3.8940207597770891    4.0529117026930139    4.5393202249078088     Mn4
    7.2249546196995240    7.4928278450647943    9.5152549529417101      O1
    0.5891862316994616    1.5006518836352063    3.6766007851109821      O2
    4.4962565753504764    2.9960879807147935    9.5152549529417101      O3
    3.3178842213495243    5.9973917479852066    3.6766007851109821      O4
    5.7714462666629354    5.7867646685825660    9.5512211815466053      O5
    2.0426945300370654    3.2067150601174341    3.7125666633966059      O6
    5.9497649283870651    1.2900248042325659    9.5512211815466053      O7
    1.8643758683129346    7.7034549244674349    3.7125666633966059      O8
    1.8141309429901538    8.5547775716905008   11.2258643857297322      O9
    6.0000100881340703    0.4387019591529455    5.3872098675797329     O10
    2.0929394553598466    4.0580379771448927   11.2258643857297322     O11
    5.7212011069159301    4.9354420213595001    5.3872098675797329     O12
    3.2895187964878136    6.8652628925504668   11.2515545590280652     O13
    4.5246222346364107    2.1282168361495342    5.4128996905587936     O14
    0.6175516018621866    2.3685230282004661   11.2515545590280652     O15
    7.1965889604135898    6.6249567004995340    5.4128996905587936     O16
    1.2120513946044187    0.6770291809569752    8.5205819443893134     O17
    6.6020894020955811    8.3164504757951878    2.6819274262393127     O18
    2.6950190037455815    5.1737691172548139    8.5205819443893134     O19
    5.1191217929544193    3.8197106114451875    2.6819274262393127     O20
    1.1461781486175338    0.0244622648620640    6.3724239405253851     O21
    6.6679626480824670    8.9690174818248956    0.5337697610173460     O22
    2.7608922497324664    4.5212021112251044    6.3724239405253851     O23
    5.0532485469675334    4.4722776174748962    0.5337697610173460     O24
    6.1030783786324605    6.9931501742925795    9.8122091903129292      C1
    1.7110624180675398    2.0003295544074202    3.9735546721629276      C2
    5.6181328164175399    2.4964103099425801    9.8122091903129292      C3
    2.1960079802824599    6.4970694187574214    3.9735546721629276      C4
    2.3046246311262797    7.4932775909990665   10.7390374654248575      C5
    5.5095163999979446    1.5002021377009336    4.9003829472748581      C6
    1.6024457672237205    2.9965377266490663   10.7390374654248575      C7
    6.2116947950520558    5.9969420020509343    4.9003829472748581      C8
    0.5868419503897476    0.4141497505001148    7.4400810997713078      C9
    7.2272987837971261    8.5793298792716080    1.6014262313020364     C10
    3.3202283854471260    4.9108897137783920    7.4400810997713078     C11
    4.4939124112528743    4.0825900149216086    1.6014262313020364     C12
    5.3606570021925277    7.6226936923472222   10.3382722543309686      H1
    2.4534837945074726    1.3707860363527784    4.4996173975390068      H2
    6.3605541928574727    3.1259538279972219   10.3382722543309686      H3
    1.4535866038425276    5.8675259007027787    4.4996173975390068      H4
    1.8560146751473394    7.0812858889142118    9.8160630642914874      H5
    5.9581262387647733    1.9121938397857887    3.9774082074995252      H6
    2.0510558404147727    2.5845460245642116    9.8160630642914874      H7
    5.7630849562852271    6.4089337041357890    3.9774082074995252      H8
    7.3019241019005392    0.5385295661545560    7.4432340783068893      H9
    0.5122169214095442    8.4549500006628104    1.6045792098376186     H10
    4.4192870931494612    5.0352695923871913    7.4432340783068893     H11
    3.3948534769404559    3.9582104061172010    1.6045792098376186     H12
    0.9830970301904047    5.2051561006970637    8.1519290995990676     H13
    6.8310435320853715    3.7883236280029364    2.3132749317683392     H14
    2.9239733681595954    0.7084162363470640    8.1519290995990676     H15
    4.8901676629646289    8.2850634923529363    2.3132749317683392     H16
    7.1059452553657829    5.2457170989800890    8.4734055808507343     H17
    0.7081955960332026    3.7477626297199116    2.6347510627007336     H18
    4.6152659396842175    0.7489772346300888    8.4734055808507343     H19
    3.1988748570157828    8.2445024940699110    2.6347510627007336     H20
    7.6909116556815071    5.8114064972608936    6.9817465215822798     H21
    0.1232289925498182    3.1820732314391074    1.1430916647903167     H22
    4.0302995393684933    1.3146666329108931    6.9817465215822798     H23
    3.7838414917557306    7.6788130957891072    1.1430916647903167     H24
    0.8050909575405641    3.6228434840796200    6.6891124915259859     H25
    7.0090496672483384    5.3706362446203810    0.8504583236952566     H26
    3.1019795033225623    8.1195833484296198    6.6891124915259859     H27
    4.7121615278016620    0.8738963802703804    0.8504583236952566     H28
    6.9824035877861261    3.7907516786666111    6.5210761079121013     H29
    0.8317372089138744    5.2027283108443019    0.6824219400813720     H30
    4.7388076072638743    8.2874912822056999    6.5210761079121013     H31
    3.0753331894361260    0.7059881856833892    0.6824219400813720     H32
    0.0207856145192220    5.0948963989623914    7.7362175168041665      N1
    7.7933553697201576    3.8985833297376091    1.8975626483348960      N2
    3.8862847369459335    0.5981565346123910    7.7362175168041665      N3
    3.9278558253298432    8.3953231940876094    1.8975626483348960      N4
    7.7423286630530885    3.7441654446784653    7.2147085215691193      N5
    0.0718119539216730    5.2493145538259274    1.3760540034191198      N6
    3.9788825319969119    8.2409050392240744    7.2147085215691193      N7
    3.8352584991273129    0.7525744196715349    1.3760540034191198      N8
