Generated by VASPKIT code               
    1.000000000000000     
     8.9917817011489127    0.0000000000000000   -0.000000000000000
     0.0000000000000000    7.8144938150255907    0.0000000000000000
     0.000000000000000    0.0000000000000000   11.6783859427047663
   Mn   O    C    H    N 
     4    24    12    32     8
Direct
  0.5492284458358060  0.4983478490507653  0.1112481128312645
  0.4507716200241882  0.5016518466524607  0.6112480431732581
  0.0492284308358083  0.0016521539492314  0.1112481128312645
  0.9507715900241858  0.9983481533475393  0.6112480431732581
  0.3329389494643042  0.4247206904567016  0.1851065382568934
  0.6670612435106552  0.5752793505334487  0.6851065990498350
  0.8329389194643088  0.0752793165433025  0.1851065382568934
  0.1670612135106599  0.9247206494665513  0.6851065990498350
  0.1432182121032261  0.2387126654281173  0.1820164168480526
  0.8567821432511673  0.7612876723878079  0.6820165392448543
  0.6432182271032310  0.2612873345718827  0.1820164168480526
  0.3567821732511697  0.7387123276121921  0.6820165392448543
  0.4512110688851255  0.7322862027607484  0.0386642849759095
  0.5487887706567799  0.2677138571624267  0.5386643311230013
  0.9512110388851230  0.7677137972392516  0.0386642849759095
  0.0487887476567744  0.2322861428375733  0.5386643311230013
  0.2633149688403690  0.9210968940918166  0.0364488014010133
  0.7366848558267205  0.0789033988959345  0.5364486959989584
  0.7633149978403679  0.5789031059081834  0.0364488014010133
  0.2366848708267181  0.4210966011040655  0.5364486959989584
  0.5752317604828008  0.6550387309223350  0.2703049754573109
  0.4247683026104088  0.3449611650743794  0.7703049583898216
  0.0752317304828053  0.8449612690776650  0.2703049754573109
  0.9247682726104134  0.1550388349256206  0.7703049583898216
  0.5029144728252524  0.6465889715559885  0.4542994219604264
  0.4970856824121909  0.3534104148727652  0.9542993320083427
  0.0029144978252509  0.8534110284440115  0.4542994219604264
  0.9970857124121933  0.1465886021272352  0.9542993320083427
  0.2773657974318098  0.2811669520326606  0.1596517519141795
  0.7226338062786203  0.7188330411707672  0.6596517032356556
  0.7773658264318087  0.2188330479673394  0.1596517519141795
  0.2226338352786192  0.7811669588292328  0.6596517032356556
  0.3331327197688788  0.7950379563232619  0.0803321036027547
  0.6668672869122618  0.2049619664800418  0.5803320330157025
  0.8331327197688788  0.7049620436767381  0.0803321036027547
  0.1668672869122619  0.2950380335199583  0.5803320330157025
  0.5460935161026497  0.5750161025450332  0.3628354196676631
  0.4539065417523395  0.4249837325809241  0.8628354268064032
  0.0460935091026456  0.9249838974549668  0.3628354196676631
  0.9539065417523396  0.0750162594190753  0.8628354268064032
  0.3473872261839087  0.1861939773247339  0.1145825855364429
  0.6526128703955448  0.8138059420780526  0.6145826577631234
  0.8473871971839099  0.3138060376752638  0.1145825855364429
  0.1526128553955400  0.6861940579219474  0.6145826577631234
  0.2872673965089298  0.7375931266346616  0.1593350014684193
  0.7127326432057608  0.2624069133153526  0.6593350552636106
  0.7872673965089299  0.7624068733653384  0.1593350014684193
  0.2127326282057631  0.2375930716846497  0.6593350552636106
  0.5598376761183830  0.4343541033608879  0.3625294259634627
  0.4401628152123513  0.5656457773027670  0.8625294546619088
  0.0598376831183799  0.0656458816391144  0.3625294259634627
  0.9401618312123481  0.9343542226972330  0.8625294546619088
  0.0786617366057286  0.6258624175575541  0.3019181787968352
  0.9213382717328431  0.3741376296012670  0.8019181427965043
  0.5786617446057293  0.8741375824424459  0.3019181787968352
  0.4213382717328431  0.1258623843987342  0.8019181427965043
  0.0830949584115729  0.4094317230971041  0.2743974923830774
  0.9169051621000694  0.5905683559911437  0.7743973633718102
  0.5830949664115807  0.0905682629028947  0.2743974923830774
  0.4169051621000696  0.9094316440088563  0.7743973633718102
  0.1461673345436987  0.4843070784842430  0.4020833466336855
  0.8538327031602506  0.5156931101718328  0.9020831926024245
  0.6461673495437106  0.0156929265157609  0.4020833466336855
  0.3538327331602530  0.9843068898281672  0.9020831926024245
  0.9028535048110903  0.6031496532444548  0.4273099701433288
  0.0971464968863584  0.3968503160857534  0.9273099017873703
  0.4028535048110902  0.8968503467555452  0.4273099701433288
  0.5971465118863561  0.1031496919142472  0.9273099017873703
  0.9214880523837258  0.3936944663747691  0.4416853391187391
  0.0785119448663934  0.6063055233425158  0.9416853264987208
  0.4214880223837305  0.1063055486252357  0.4416853391187391
  0.5785119228663915  0.8936944766574842  0.9416853264987208
  0.0664162475534772  0.5027273688645740  0.3375251446781664
  0.9335838200249865  0.4972727064311029  0.8375250399217350
  0.5664162175534746  0.9972726311354260  0.3375251446781664
  0.4335837900249840  0.0027273045688944  0.8375250399217350
  0.9162419445529211  0.4909395494142886  0.3822929470860645
  0.0837580737664451  0.5090605834552151  0.8822929155632704
  0.4162419445529211  0.0090604495857149  0.3822929470860645
  0.5837580657664445  0.9909394165447849  0.8822929155632704
 
  0.00000000E+00  0.00000000E+00  0.00000000E+00
  0.00000000E+00  0.00000000E+00  0.00000000E+00
  0.00000000E+00  0.00000000E+00  0.00000000E+00
  0.00000000E+00  0.00000000E+00  0.00000000E+00
  0.00000000E+00  0.00000000E+00  0.00000000E+00
  0.00000000E+00  0.00000000E+00  0.00000000E+00
  0.00000000E+00  0.00000000E+00  0.00000000E+00
  0.00000000E+00  0.00000000E+00  0.00000000E+00
  0.00000000E+00  0.00000000E+00  0.00000000E+00
  0.00000000E+00  0.00000000E+00  0.00000000E+00
  0.00000000E+00  0.00000000E+00  0.00000000E+00
  0.00000000E+00  0.00000000E+00  0.00000000E+00
  0.00000000E+00  0.00000000E+00  0.00000000E+00
  0.00000000E+00  0.00000000E+00  0.00000000E+00
  0.00000000E+00  0.00000000E+00  0.00000000E+00
  0.00000000E+00  0.00000000E+00  0.00000000E+00
  0.00000000E+00  0.00000000E+00  0.00000000E+00
  0.00000000E+00  0.00000000E+00  0.00000000E+00
  0.00000000E+00  0.00000000E+00  0.00000000E+00
  0.00000000E+00  0.00000000E+00  0.00000000E+00
  0.00000000E+00  0.00000000E+00  0.00000000E+00
  0.00000000E+00  0.00000000E+00  0.00000000E+00
  0.00000000E+00  0.00000000E+00  0.00000000E+00
  0.00000000E+00  0.00000000E+00  0.00000000E+00
  0.00000000E+00  0.00000000E+00  0.00000000E+00
  0.00000000E+00  0.00000000E+00  0.00000000E+00
  0.00000000E+00  0.00000000E+00  0.00000000E+00
  0.00000000E+00  0.00000000E+00  0.00000000E+00
  0.00000000E+00  0.00000000E+00  0.00000000E+00
  0.00000000E+00  0.00000000E+00  0.00000000E+00
  0.00000000E+00  0.00000000E+00  0.00000000E+00
  0.00000000E+00  0.00000000E+00  0.00000000E+00
  0.00000000E+00  0.00000000E+00  0.00000000E+00
  0.00000000E+00  0.00000000E+00  0.00000000E+00
  0.00000000E+00  0.00000000E+00  0.00000000E+00
  0.00000000E+00  0.00000000E+00  0.00000000E+00
  0.00000000E+00  0.00000000E+00  0.00000000E+00
  0.00000000E+00  0.00000000E+00  0.00000000E+00
  0.00000000E+00  0.00000000E+00  0.00000000E+00
  0.00000000E+00  0.00000000E+00  0.00000000E+00
  0.00000000E+00  0.00000000E+00  0.00000000E+00
  0.00000000E+00  0.00000000E+00  0.00000000E+00
  0.00000000E+00  0.00000000E+00  0.00000000E+00
  0.00000000E+00  0.00000000E+00  0.00000000E+00
  0.00000000E+00  0.00000000E+00  0.00000000E+00
  0.00000000E+00  0.00000000E+00  0.00000000E+00
  0.00000000E+00  0.00000000E+00  0.00000000E+00
  0.00000000E+00  0.00000000E+00  0.00000000E+00
  0.00000000E+00  0.00000000E+00  0.00000000E+00
  0.00000000E+00  0.00000000E+00  0.00000000E+00
  0.00000000E+00  0.00000000E+00  0.00000000E+00
  0.00000000E+00  0.00000000E+00  0.00000000E+00
  0.00000000E+00  0.00000000E+00  0.00000000E+00
  0.00000000E+00  0.00000000E+00  0.00000000E+00
  0.00000000E+00  0.00000000E+00  0.00000000E+00
  0.00000000E+00  0.00000000E+00  0.00000000E+00
  0.00000000E+00  0.00000000E+00  0.00000000E+00
  0.00000000E+00  0.00000000E+00  0.00000000E+00
  0.00000000E+00  0.00000000E+00  0.00000000E+00
  0.00000000E+00  0.00000000E+00  0.00000000E+00
  0.00000000E+00  0.00000000E+00  0.00000000E+00
  0.00000000E+00  0.00000000E+00  0.00000000E+00
  0.00000000E+00  0.00000000E+00  0.00000000E+00
  0.00000000E+00  0.00000000E+00  0.00000000E+00
  0.00000000E+00  0.00000000E+00  0.00000000E+00
  0.00000000E+00  0.00000000E+00  0.00000000E+00
  0.00000000E+00  0.00000000E+00  0.00000000E+00
  0.00000000E+00  0.00000000E+00  0.00000000E+00
  0.00000000E+00  0.00000000E+00  0.00000000E+00
  0.00000000E+00  0.00000000E+00  0.00000000E+00
  0.00000000E+00  0.00000000E+00  0.00000000E+00
  0.00000000E+00  0.00000000E+00  0.00000000E+00
  0.00000000E+00  0.00000000E+00  0.00000000E+00
  0.00000000E+00  0.00000000E+00  0.00000000E+00
  0.00000000E+00  0.00000000E+00  0.00000000E+00
  0.00000000E+00  0.00000000E+00  0.00000000E+00
  0.00000000E+00  0.00000000E+00  0.00000000E+00
  0.00000000E+00  0.00000000E+00  0.00000000E+00
  0.00000000E+00  0.00000000E+00  0.00000000E+00
  0.00000000E+00  0.00000000E+00  0.00000000E+00
