Generated by VASPKIT code               
    1.000000000000000     
     8.9934799208491167   -0.0000000000000000    0.0000000000000000
    -0.0000000000000000    7.8141414193711345    0.0000000000000000
     0.0000000000000000    0.0000000000000000   11.6773092489554866
   Mn   O    C    H    N 
     4    24    12    32     8
Direct
  0.5493459782311823  0.4983342741181487  0.1112687210229411
  0.4506540517688201  0.5016657548818497  0.6112686990229388
  0.0493457930377970  0.0016657965428681  0.1112683319934264
  0.9506541919622046  0.9983341774571302  0.6112683099934239
  0.3331371083635640  0.4245984551486223  0.1851487561753124
  0.6668629216364320  0.5754015748513808  0.6851487411753153
  0.8331391963245257  0.0754001823401449  0.1851476354305703
  0.1668607736754787  0.9245997946598568  0.6851476204305721
  0.1434420441959328  0.2385908090101126  0.1820697464658594
  0.8565579408040618  0.7614091909898869  0.6820697164658638
  0.6434429089148276  0.2614066414963973  0.1820704300675426
  0.3565571210851756  0.7385933585036030  0.6820704000675460
  0.4512239873590552  0.7321624623251670  0.0386623986557672
  0.5487760426409469  0.2678375666748399  0.5386624176557653
  0.9512249944727460  0.7678401059766143  0.0386623917772905
  0.0487749825272490  0.2321598650233792  0.5386624107772885
  0.2633621979672348  0.9209730685027229  0.0364625296821210
  0.7366377730327671  0.0790269314972768  0.5364625076821268
  0.7633643118256639  0.5790278139139340  0.0364618820137756
  0.2366357031743341  0.4209721860860651  0.5364618600137810
  0.5752755283826545  0.6551142826467876  0.2703296526422101
  0.4247245016173415  0.3448857473532144  0.7703296526422099
  0.0752753076263510  0.8448845204444133  0.2703298653524627
  0.9247246623736541  0.1551154495555831  0.7703298653524622
  0.5027230233618243  0.6466791311122380  0.4542860050596872
  0.4972769466381741  0.3533208688877624  0.9542859750596917
  0.0027229054992029  0.8533197061293167  0.4542861151400704
  0.9972771195007952  0.1466793108706838  0.9542860851400743
  0.2775758093983035  0.2810294244006281  0.1597162113531619
  0.7224241616016969  0.7189705455993761  0.6597162113531623
  0.7775773395383531  0.2189692149549448  0.1597158489893500
  0.2224226894616459  0.7810308150450508  0.6597158489893498
  0.3331864654460897  0.7949330736176434  0.0803553364043842
  0.6668135345539100  0.2050668963823609  0.5803553444043856
  0.8331881347057296  0.7050683599691779  0.0803552610805969
  0.1668118652942702  0.2949316700308168  0.5803552690805973
  0.5460520711301045  0.5751025153430169  0.3628584806167904
  0.4539479288698950  0.4248974546569868  0.8628584806167907
  0.0460521045473961  0.9248962222186791  0.3628584736867185
  0.9539478884525996  0.0751037997813157  0.8628584736867192
  0.3475786380767182  0.1860212940268484  0.1146677493761006
  0.6524213909232803  0.8139786909731554  0.6146677263761019
  0.8475789065269193  0.3139779337776762  0.1146676330620853
  0.1524210784730763  0.6860220962223198  0.6146676100620865
  0.2873746087782967  0.7375178748053367  0.1593912621757248
  0.7126253912217032  0.2624821251946636  0.6593912771757298
  0.7873760871458715  0.7624823480728471  0.1593914022849243
  0.2126238978541310  0.2375176369271486  0.6593914172849290
  0.5598814085625325  0.4344464958244694  0.3625861677099417
  0.4401195754374699  0.5655535041755306  0.8625861677099426
  0.0598812194511009  0.0655524529166249  0.3625860630631639
  0.9401187875488961  0.9344475320833776  0.8625860630631643
  0.0787663872312235  0.6258088411324968  0.3019036584265603
  0.9212336047687758  0.3741911588675034  0.8019036884265631
  0.5787667490464841  0.8741899806965890  0.3019038239833214
  0.4212332509535164  0.1258100333034126  0.8019038539833229
  0.0832755840189756  0.4093655061356467  0.2743664386417788
  0.9167244079810233  0.5906344648643537  0.7743664086417834
  0.5832767061984651  0.0906334481847300  0.2743666686944669
  0.4167232938015345  0.9093665668152678  0.7743666386944711
  0.1461778223958082  0.4842335783359180  0.4021108068134570
  0.8538221626041874  0.5157664216640808  0.9021108368134597
  0.6461784699462528  0.0157647835640393  0.4021111130580168
  0.3538215600537492  0.9842352214359650  0.9021111430580188
  0.9028257231238458  0.6030252322881715  0.4271655177121433
  0.0971742618761571  0.3969747677118283  0.9271655477121383
  0.4028257687830635  0.8969740327096732  0.4271651826183467
  0.5971742312169360  0.1030259752903276  0.9271652126183422
  0.9214990946194271  0.3935614067109893  0.4415601599141857
  0.0785009273805751  0.6064385932890100  0.9415601309141867
  0.4214998362709187  0.1064377739394179  0.4415601048297757
  0.5785001337290860  0.8935622410605872  0.9415600758297773
  0.0665115040867024  0.5026543201688477  0.3374968466533561
  0.9334885259133002  0.4973457098311483  0.8374968466533562
  0.5665121733807174  0.9973444728839977  0.3374970178764767
  0.4334877966192803  0.0026555081160043  0.8374970178764765
  0.9163149325132054  0.4908108918875825  0.3821612330838652
  0.0836850754867946  0.5091891081124170  0.8821612330838653
  0.4163155163131742  0.0091885008455186  0.3821611164122442
  0.5836844836868255  0.9908114981544853  0.8821611164122435
 
  0.00000000E+00  0.00000000E+00  0.00000000E+00
  0.00000000E+00  0.00000000E+00  0.00000000E+00
  0.00000000E+00  0.00000000E+00  0.00000000E+00
  0.00000000E+00  0.00000000E+00  0.00000000E+00
  0.00000000E+00  0.00000000E+00  0.00000000E+00
  0.00000000E+00  0.00000000E+00  0.00000000E+00
  0.00000000E+00  0.00000000E+00  0.00000000E+00
  0.00000000E+00  0.00000000E+00  0.00000000E+00
  0.00000000E+00  0.00000000E+00  0.00000000E+00
  0.00000000E+00  0.00000000E+00  0.00000000E+00
  0.00000000E+00  0.00000000E+00  0.00000000E+00
  0.00000000E+00  0.00000000E+00  0.00000000E+00
  0.00000000E+00  0.00000000E+00  0.00000000E+00
  0.00000000E+00  0.00000000E+00  0.00000000E+00
  0.00000000E+00  0.00000000E+00  0.00000000E+00
  0.00000000E+00  0.00000000E+00  0.00000000E+00
  0.00000000E+00  0.00000000E+00  0.00000000E+00
  0.00000000E+00  0.00000000E+00  0.00000000E+00
  0.00000000E+00  0.00000000E+00  0.00000000E+00
  0.00000000E+00  0.00000000E+00  0.00000000E+00
  0.00000000E+00  0.00000000E+00  0.00000000E+00
  0.00000000E+00  0.00000000E+00  0.00000000E+00
  0.00000000E+00  0.00000000E+00  0.00000000E+00
  0.00000000E+00  0.00000000E+00  0.00000000E+00
  0.00000000E+00  0.00000000E+00  0.00000000E+00
  0.00000000E+00  0.00000000E+00  0.00000000E+00
  0.00000000E+00  0.00000000E+00  0.00000000E+00
  0.00000000E+00  0.00000000E+00  0.00000000E+00
  0.00000000E+00  0.00000000E+00  0.00000000E+00
  0.00000000E+00  0.00000000E+00  0.00000000E+00
  0.00000000E+00  0.00000000E+00  0.00000000E+00
  0.00000000E+00  0.00000000E+00  0.00000000E+00
  0.00000000E+00  0.00000000E+00  0.00000000E+00
  0.00000000E+00  0.00000000E+00  0.00000000E+00
  0.00000000E+00  0.00000000E+00  0.00000000E+00
  0.00000000E+00  0.00000000E+00  0.00000000E+00
  0.00000000E+00  0.00000000E+00  0.00000000E+00
  0.00000000E+00  0.00000000E+00  0.00000000E+00
  0.00000000E+00  0.00000000E+00  0.00000000E+00
  0.00000000E+00  0.00000000E+00  0.00000000E+00
  0.00000000E+00  0.00000000E+00  0.00000000E+00
  0.00000000E+00  0.00000000E+00  0.00000000E+00
  0.00000000E+00  0.00000000E+00  0.00000000E+00
  0.00000000E+00  0.00000000E+00  0.00000000E+00
  0.00000000E+00  0.00000000E+00  0.00000000E+00
  0.00000000E+00  0.00000000E+00  0.00000000E+00
  0.00000000E+00  0.00000000E+00  0.00000000E+00
  0.00000000E+00  0.00000000E+00  0.00000000E+00
  0.00000000E+00  0.00000000E+00  0.00000000E+00
  0.00000000E+00  0.00000000E+00  0.00000000E+00
  0.00000000E+00  0.00000000E+00  0.00000000E+00
  0.00000000E+00  0.00000000E+00  0.00000000E+00
  0.00000000E+00  0.00000000E+00  0.00000000E+00
  0.00000000E+00  0.00000000E+00  0.00000000E+00
  0.00000000E+00  0.00000000E+00  0.00000000E+00
  0.00000000E+00  0.00000000E+00  0.00000000E+00
  0.00000000E+00  0.00000000E+00  0.00000000E+00
  0.00000000E+00  0.00000000E+00  0.00000000E+00
  0.00000000E+00  0.00000000E+00  0.00000000E+00
  0.00000000E+00  0.00000000E+00  0.00000000E+00
  0.00000000E+00  0.00000000E+00  0.00000000E+00
  0.00000000E+00  0.00000000E+00  0.00000000E+00
  0.00000000E+00  0.00000000E+00  0.00000000E+00
  0.00000000E+00  0.00000000E+00  0.00000000E+00
  0.00000000E+00  0.00000000E+00  0.00000000E+00
  0.00000000E+00  0.00000000E+00  0.00000000E+00
  0.00000000E+00  0.00000000E+00  0.00000000E+00
  0.00000000E+00  0.00000000E+00  0.00000000E+00
  0.00000000E+00  0.00000000E+00  0.00000000E+00
  0.00000000E+00  0.00000000E+00  0.00000000E+00
  0.00000000E+00  0.00000000E+00  0.00000000E+00
  0.00000000E+00  0.00000000E+00  0.00000000E+00
  0.00000000E+00  0.00000000E+00  0.00000000E+00
  0.00000000E+00  0.00000000E+00  0.00000000E+00
  0.00000000E+00  0.00000000E+00  0.00000000E+00
  0.00000000E+00  0.00000000E+00  0.00000000E+00
  0.00000000E+00  0.00000000E+00  0.00000000E+00
  0.00000000E+00  0.00000000E+00  0.00000000E+00
  0.00000000E+00  0.00000000E+00  0.00000000E+00
  0.00000000E+00  0.00000000E+00  0.00000000E+00
