C3 H3 Co O6, H5 N2                      
   1.00000000000000     
     8.6237924584165864    0.0000000000000000    0.00000000000000
     0.0000000000000000    7.7300367523297959    0.0000000000000000
     0.0000000000000000   0.0000000000000000   11.4596758855555212
   Co   O    C    H    N 
     4    24    12    32     8
Direct
  0.4630827112137936  0.4999002727328659  0.5076063986976465
  0.5369173123534310  0.5000997770326947  0.0076063389773040
  0.9630827112137936  0.0000997272671341  0.5076063986976465
  0.0369173123534310  0.9999002229673053  0.0076063389773040
  0.3718997606843004  0.7321014017780811  0.4383821136672523
  0.6280998788164212  0.2678986062531195  0.9383819070703652
  0.8718997606843004  0.7678985982219189  0.4383821136672523
  0.1280998788164212  0.2321013937468734  0.9383819070703652
  0.1797956599931751  0.9263481797240942  0.4398828154662908
  0.8202039204478240  0.0736517148699321  0.9398829761785237
  0.6797956449931704  0.5736518202759058  0.4398828154662908
  0.3202039204478240  0.4263482851300679  0.9398829761785237
  0.4402911398686911  0.3540545025272479  0.3522737396598217
  0.5597089762424332  0.6459453985114152  0.8522738755400638
  0.9402911698686864  0.1459454974727521  0.3522737396598217
  0.0597090062424286  0.8540546014885848  0.8522738755400638
  0.4945847505482348  0.3598906437353975  0.1613261169331821
  0.5054151847164832  0.6401096203971832  0.6613263821397979
  0.9945847805482373  0.1401093562646025  0.1613261169331821
  0.0054152147164857  0.8598903796028168  0.6613263821397979
  0.2482686162448573  0.4224911864949021  0.5809967252616417
  0.7517317954099951  0.5775088263345793  0.0809966927906558
  0.7482686162448502  0.0775088135050979  0.5809967252616417
  0.2517317954099880  0.9224911736654207  0.0809966927906558
  0.0548320695350668  0.2290734981173657  0.5790348953078563
  0.9451683656315382  0.7709263781038018  0.0790349546434115
  0.5548320925350652  0.2709265168826462  0.5790348953078563
  0.4451683956315335  0.7290736218961982  0.0790349546434115
  0.2349304205806035  0.7796516971416168  0.4661357393512446
  0.7650692572964672  0.2203483355923197  0.9661357032199618
  0.7349304205806035  0.7203483028583832  0.4661357393512446
  0.2650692572964672  0.2796516644076803  0.9661357032199618
  0.4671161010997693  0.4351941346873289  0.2574124491051180
  0.5328838603985346  0.5648059610182159  0.7574126274300070
  0.9671161310997718  0.0648058653126640  0.2574124491051180
  0.0328838903985371  0.9351940389817841  0.7574126274300070
  0.1792770115539142  0.2914132993458836  0.5377181610577253
  0.8207233568192080  0.7085866811691020  0.0377182885903906
  0.6792770265539048  0.2085867006541093  0.5377181610577253
  0.3207233568192080  0.7914133188308980  0.0377182885903906
  0.1624084364090450  0.6883122358682883  0.5160703445951142
  0.8375910330745882  0.3116879438527391  0.0160702725383430
  0.6624084364090450  0.8116877641317117  0.5160703445951142
  0.3375910330745882  0.1883120561472680  0.0160702725383430
  0.4660446445433664  0.5776976000490563  0.2598212834175584
  0.5339552436952602  0.4223023978355158  0.7598212396168407
  0.9660446445433664  0.9223023999509437  0.2598212834175584
  0.0339552436952602  0.0776976021644842  0.7598212396168407
  0.2310702899883879  0.2292891065962976  0.4603773371241004
  0.7689301639109729  0.7707110878603203  0.9603774676368388
  0.7310703049883855  0.2707108784036976  0.4603773371241004
  0.2689301639109729  0.7292889121396797  0.9603774676368388
  0.6029290936638674  0.1090183885754712  0.1796928076794657
  0.3970710567800211  0.8909815039600559  0.6796930865013309
  0.1029290936638674  0.3909816114245217  0.1796928076794657
  0.8970710567800211  0.6090184960399441  0.6796930865013309
  0.5844659763958475  0.8969360991011044  0.1666945169016927
  0.4155340521136210  0.1030638760387106  0.6666947663287672
  0.0844659763958475  0.6030639008988956  0.1666945169016927
  0.9155340521136210  0.3969361169612853  0.6666947663287672
  0.3529174376291166  0.9882609722549844  0.2165643446328787
  0.6470825415126313  0.0117389939130277  0.7165645600575417
  0.8529174676291191  0.5117390277450156  0.2165643446328787
  0.1470825715126338  0.4882610120869728  0.7165645600575417
  0.4303216506250536  0.1290033204371497  0.3170795879205741
  0.5696782829306102  0.8709967239230423  0.8170799179633903
  0.9303216206250440  0.3709966715628497  0.3170795879205741
  0.0696782529306077  0.6290032760769577  0.8170799179633903
  0.4287814257713833  0.9099081739107646  0.3425484536829160
  0.5712183859274873  0.0900919502444282  0.8425486327079312
  0.9287814257713833  0.5900918260892354  0.3425484536829160
  0.0712183859274873  0.4099080467555680  0.8425486327079312
  0.5937225389827887  0.9958908434194171  0.2264603382666408
  0.4062774864000502  0.0041090791971783  0.7264605980365246
  0.0937225389827887  0.5041091565805829  0.2264603382666408
  0.9062774864000502  0.4958909338028192  0.7264605980365246
  0.4408830983800343  0.0059369075405513  0.2788186034913522
  0.5591168538111617  0.9940631051709019  0.7788188418119688
  0.9408831283800367  0.4940630794594369  0.2788186034913522
  0.0591168838111642  0.5059368948290981  0.7788188418119688
 
  0.00000000E+00  0.00000000E+00  0.00000000E+00
  0.00000000E+00  0.00000000E+00  0.00000000E+00
  0.00000000E+00  0.00000000E+00  0.00000000E+00
  0.00000000E+00  0.00000000E+00  0.00000000E+00
  0.00000000E+00  0.00000000E+00  0.00000000E+00
  0.00000000E+00  0.00000000E+00  0.00000000E+00
  0.00000000E+00  0.00000000E+00  0.00000000E+00
  0.00000000E+00  0.00000000E+00  0.00000000E+00
  0.00000000E+00  0.00000000E+00  0.00000000E+00
  0.00000000E+00  0.00000000E+00  0.00000000E+00
  0.00000000E+00  0.00000000E+00  0.00000000E+00
  0.00000000E+00  0.00000000E+00  0.00000000E+00
  0.00000000E+00  0.00000000E+00  0.00000000E+00
  0.00000000E+00  0.00000000E+00  0.00000000E+00
  0.00000000E+00  0.00000000E+00  0.00000000E+00
  0.00000000E+00  0.00000000E+00  0.00000000E+00
  0.00000000E+00  0.00000000E+00  0.00000000E+00
  0.00000000E+00  0.00000000E+00  0.00000000E+00
  0.00000000E+00  0.00000000E+00  0.00000000E+00
  0.00000000E+00  0.00000000E+00  0.00000000E+00
  0.00000000E+00  0.00000000E+00  0.00000000E+00
  0.00000000E+00  0.00000000E+00  0.00000000E+00
  0.00000000E+00  0.00000000E+00  0.00000000E+00
  0.00000000E+00  0.00000000E+00  0.00000000E+00
  0.00000000E+00  0.00000000E+00  0.00000000E+00
  0.00000000E+00  0.00000000E+00  0.00000000E+00
  0.00000000E+00  0.00000000E+00  0.00000000E+00
  0.00000000E+00  0.00000000E+00  0.00000000E+00
  0.00000000E+00  0.00000000E+00  0.00000000E+00
  0.00000000E+00  0.00000000E+00  0.00000000E+00
  0.00000000E+00  0.00000000E+00  0.00000000E+00
  0.00000000E+00  0.00000000E+00  0.00000000E+00
  0.00000000E+00  0.00000000E+00  0.00000000E+00
  0.00000000E+00  0.00000000E+00  0.00000000E+00
  0.00000000E+00  0.00000000E+00  0.00000000E+00
  0.00000000E+00  0.00000000E+00  0.00000000E+00
  0.00000000E+00  0.00000000E+00  0.00000000E+00
  0.00000000E+00  0.00000000E+00  0.00000000E+00
  0.00000000E+00  0.00000000E+00  0.00000000E+00
  0.00000000E+00  0.00000000E+00  0.00000000E+00
  0.00000000E+00  0.00000000E+00  0.00000000E+00
  0.00000000E+00  0.00000000E+00  0.00000000E+00
  0.00000000E+00  0.00000000E+00  0.00000000E+00
  0.00000000E+00  0.00000000E+00  0.00000000E+00
  0.00000000E+00  0.00000000E+00  0.00000000E+00
  0.00000000E+00  0.00000000E+00  0.00000000E+00
  0.00000000E+00  0.00000000E+00  0.00000000E+00
  0.00000000E+00  0.00000000E+00  0.00000000E+00
  0.00000000E+00  0.00000000E+00  0.00000000E+00
  0.00000000E+00  0.00000000E+00  0.00000000E+00
  0.00000000E+00  0.00000000E+00  0.00000000E+00
  0.00000000E+00  0.00000000E+00  0.00000000E+00
  0.00000000E+00  0.00000000E+00  0.00000000E+00
  0.00000000E+00  0.00000000E+00  0.00000000E+00
  0.00000000E+00  0.00000000E+00  0.00000000E+00
  0.00000000E+00  0.00000000E+00  0.00000000E+00
  0.00000000E+00  0.00000000E+00  0.00000000E+00
  0.00000000E+00  0.00000000E+00  0.00000000E+00
  0.00000000E+00  0.00000000E+00  0.00000000E+00
  0.00000000E+00  0.00000000E+00  0.00000000E+00
  0.00000000E+00  0.00000000E+00  0.00000000E+00
  0.00000000E+00  0.00000000E+00  0.00000000E+00
  0.00000000E+00  0.00000000E+00  0.00000000E+00
  0.00000000E+00  0.00000000E+00  0.00000000E+00
  0.00000000E+00  0.00000000E+00  0.00000000E+00
  0.00000000E+00  0.00000000E+00  0.00000000E+00
  0.00000000E+00  0.00000000E+00  0.00000000E+00
  0.00000000E+00  0.00000000E+00  0.00000000E+00
  0.00000000E+00  0.00000000E+00  0.00000000E+00
  0.00000000E+00  0.00000000E+00  0.00000000E+00
  0.00000000E+00  0.00000000E+00  0.00000000E+00
  0.00000000E+00  0.00000000E+00  0.00000000E+00
  0.00000000E+00  0.00000000E+00  0.00000000E+00
  0.00000000E+00  0.00000000E+00  0.00000000E+00
  0.00000000E+00  0.00000000E+00  0.00000000E+00
  0.00000000E+00  0.00000000E+00  0.00000000E+00
  0.00000000E+00  0.00000000E+00  0.00000000E+00
  0.00000000E+00  0.00000000E+00  0.00000000E+00
  0.00000000E+00  0.00000000E+00  0.00000000E+00
  0.00000000E+00  0.00000000E+00  0.00000000E+00
