C3 H3 Co O6, H5 N2                      
   1.00000000000000     
     8.6228375999677063    0.0000000000000000   -0.00000000000000000
     0.0000000000000000    7.7320493740801526    0.0000000000000000
    -0.000000000000000   0.0000000000000000   11.4582865499734208
   Co   O    C    H    N 
     4    24    12    32     8
Direct
  0.4630477907624808  0.4998641817808718  0.5076122196625903
  0.5369524709547449  0.5001355886885790  0.0076121209438114
  0.9630477907624808  0.0001358182191282  0.5076122196625903
  0.0369524709547449  0.9998644113114210  0.0076121209438114
  0.3718292231691009  0.7321647817882209  0.4383869589851770
  0.6281707193504147  0.2678349883948172  0.9383869518042900
  0.8718292231691009  0.7678352182117791  0.4383869589851770
  0.1281707193504147  0.2321650116051757  0.9383869518042900
  0.1797627785634859  0.9264348944667162  0.4400328690790616
  0.8202373052942846  0.0735650629604905  0.9400327683656613
  0.6797627635634811  0.5735651055332838  0.4400328690790616
  0.3202373052942846  0.4264349370395095  0.9400327683656613
  0.4402901971326187  0.3539908953211111  0.3522782714053321
  0.5597098395885567  0.6460093028039395  0.8522781273003233
  0.9402902271326141  0.1460091046788889  0.3522782714053321
  0.0597098695885521  0.8539906971960605  0.8522781273003233
  0.4947848781565654  0.3598395759522148  0.1613428621381132
  0.5052150904354775  0.6401602174523546  0.6613427172374173
  0.9947849081565678  0.1401604240477852  0.1613428621381132
  0.0052151204354800  0.8598397825476454  0.6613427172374173
  0.2482361374582567  0.4225403229464249  0.5808765669993221
  0.7517635887102330  0.5774595401877818  0.0808765570610106
  0.7482361374582496  0.0774596770535751  0.5808765669993221
  0.2517635887102259  0.9225404598122182  0.0808765570610106
  0.0548150235717415  0.2291269652910515  0.5790614737479913
  0.9451849097566694  0.7708726954230869  0.0790615619820443
  0.5548150465717399  0.2708730497089533  0.5790614737479913
  0.4451849397566647  0.7291273045769131  0.0790615619820443
  0.2349016721956758  0.7797386498406169  0.4662306861829322
  0.7650983677011070  0.2202612734591938  0.9662306817299324
  0.7349016721956758  0.7202613501593831  0.4662306861829322
  0.2650983677011141  0.2797387265408133  0.9662306817299324
  0.4671102939267726  0.4351271255289291  0.2574092862964008
  0.5328896417578690  0.5648729390170217  0.7574091896337336
  0.9671103239267751  0.0648728744710638  0.2574092862964008
  0.0328896717578715  0.9351270609829783  0.7574091896337336
  0.1791505049605604  0.2915352161270306  0.5376045920093375
  0.8208494271657898  0.7084645799076554  0.0376046732093442
  0.6791505199605581  0.2084647838729694  0.5376045920093375
  0.3208494271657898  0.7915354200923446  0.0376046732093442
  0.1623853527087533  0.6884306100655380  0.5161867352423855
  0.8376147160861365  0.3115692141708948  0.0161867565408755
  0.6623853527087533  0.8115693899344620  0.5161867352423855
  0.3376147160861365  0.1884307858291052  0.0161867565408755
  0.4658611946375615  0.5775958454354466  0.2597868201949112
  0.5341386663969772  0.4224041499915430  0.7597868732351856
  0.9658611946375615  0.9224041545645534  0.2597868201949112
  0.0341386663969772  0.0775958500084570  0.7597868732351856
  0.2307747295565790  0.2295467897210344  0.4601458029676877
  0.7692252324596183  0.7704530545848698  0.9601458366312414
  0.7307747445565838  0.2704531952789608  0.4601458029676877
  0.2692252324596183  0.7295469454151302  0.9601458366312414
  0.6028999387812348  0.1090486777458821  0.1797298856961191
  0.3971001719984955  0.8909512615839361  0.6797298329542514
  0.1028999387812419  0.3909513222541108  0.1797298856961191
  0.8971001719984955  0.6090487384160639  0.6797298329542514
  0.5844709275363158  0.8970067947090641  0.1667223717435817
  0.4155290424677673  0.1029931651132188  0.6667223142858845
  0.0844709275363158  0.6029932052909359  0.1667223717435817
  0.9155290424677673  0.3970068278867771  0.6667223142858845
  0.3528429109280893  0.9882965978904892  0.2165400541147662
  0.6471569646041289  0.0117033996611582  0.7165401123010255
  0.8528429409280918  0.5117034021095108  0.2165400541147662
  0.1471569946041313  0.4882966063388423  0.7165401123010255
  0.4302353005289277  0.1289979509003487  0.3170862419520546
  0.5697648103986381  0.8710019882424049  0.8170862737273623
  0.9302352705289181  0.3710020410996506  0.3170862419520546
  0.0697647803986357  0.6289980117575951  0.8170862737273623
  0.4286785818061105  0.9099531239240335  0.3425515480183279
  0.5713214790021439  0.0900468807412480  0.8425516397899742
  0.9286785818061105  0.5900468760759665  0.3425515480183279
  0.0713214790021439  0.4099531162587482  0.8425516397899742
  0.5936803271584168  0.9959398900453351  0.2264935936638324
  0.4063197027480783  0.0040600499365624  0.7264935438924880
  0.0936803271584168  0.5040601099546649  0.2264935936638324
  0.9063197027480783  0.4959399630634351  0.7264935438924880
  0.4407970411999358  0.0059643342694358  0.2788192325065069
  0.5592028903837019  0.9940356769688989  0.7788192967676935
  0.9407970711999383  0.4940356527305525  0.2788192325065069
  0.0592029203837043  0.5059643230311011  0.7788192967676935
 
  0.00000000E+00  0.00000000E+00  0.00000000E+00
  0.00000000E+00  0.00000000E+00  0.00000000E+00
  0.00000000E+00  0.00000000E+00  0.00000000E+00
  0.00000000E+00  0.00000000E+00  0.00000000E+00
  0.00000000E+00  0.00000000E+00  0.00000000E+00
  0.00000000E+00  0.00000000E+00  0.00000000E+00
  0.00000000E+00  0.00000000E+00  0.00000000E+00
  0.00000000E+00  0.00000000E+00  0.00000000E+00
  0.00000000E+00  0.00000000E+00  0.00000000E+00
  0.00000000E+00  0.00000000E+00  0.00000000E+00
  0.00000000E+00  0.00000000E+00  0.00000000E+00
  0.00000000E+00  0.00000000E+00  0.00000000E+00
  0.00000000E+00  0.00000000E+00  0.00000000E+00
  0.00000000E+00  0.00000000E+00  0.00000000E+00
  0.00000000E+00  0.00000000E+00  0.00000000E+00
  0.00000000E+00  0.00000000E+00  0.00000000E+00
  0.00000000E+00  0.00000000E+00  0.00000000E+00
  0.00000000E+00  0.00000000E+00  0.00000000E+00
  0.00000000E+00  0.00000000E+00  0.00000000E+00
  0.00000000E+00  0.00000000E+00  0.00000000E+00
  0.00000000E+00  0.00000000E+00  0.00000000E+00
  0.00000000E+00  0.00000000E+00  0.00000000E+00
  0.00000000E+00  0.00000000E+00  0.00000000E+00
  0.00000000E+00  0.00000000E+00  0.00000000E+00
  0.00000000E+00  0.00000000E+00  0.00000000E+00
  0.00000000E+00  0.00000000E+00  0.00000000E+00
  0.00000000E+00  0.00000000E+00  0.00000000E+00
  0.00000000E+00  0.00000000E+00  0.00000000E+00
  0.00000000E+00  0.00000000E+00  0.00000000E+00
  0.00000000E+00  0.00000000E+00  0.00000000E+00
  0.00000000E+00  0.00000000E+00  0.00000000E+00
  0.00000000E+00  0.00000000E+00  0.00000000E+00
  0.00000000E+00  0.00000000E+00  0.00000000E+00
  0.00000000E+00  0.00000000E+00  0.00000000E+00
  0.00000000E+00  0.00000000E+00  0.00000000E+00
  0.00000000E+00  0.00000000E+00  0.00000000E+00
  0.00000000E+00  0.00000000E+00  0.00000000E+00
  0.00000000E+00  0.00000000E+00  0.00000000E+00
  0.00000000E+00  0.00000000E+00  0.00000000E+00
  0.00000000E+00  0.00000000E+00  0.00000000E+00
  0.00000000E+00  0.00000000E+00  0.00000000E+00
  0.00000000E+00  0.00000000E+00  0.00000000E+00
  0.00000000E+00  0.00000000E+00  0.00000000E+00
  0.00000000E+00  0.00000000E+00  0.00000000E+00
  0.00000000E+00  0.00000000E+00  0.00000000E+00
  0.00000000E+00  0.00000000E+00  0.00000000E+00
  0.00000000E+00  0.00000000E+00  0.00000000E+00
  0.00000000E+00  0.00000000E+00  0.00000000E+00
  0.00000000E+00  0.00000000E+00  0.00000000E+00
  0.00000000E+00  0.00000000E+00  0.00000000E+00
  0.00000000E+00  0.00000000E+00  0.00000000E+00
  0.00000000E+00  0.00000000E+00  0.00000000E+00
  0.00000000E+00  0.00000000E+00  0.00000000E+00
  0.00000000E+00  0.00000000E+00  0.00000000E+00
  0.00000000E+00  0.00000000E+00  0.00000000E+00
  0.00000000E+00  0.00000000E+00  0.00000000E+00
  0.00000000E+00  0.00000000E+00  0.00000000E+00
  0.00000000E+00  0.00000000E+00  0.00000000E+00
  0.00000000E+00  0.00000000E+00  0.00000000E+00
  0.00000000E+00  0.00000000E+00  0.00000000E+00
  0.00000000E+00  0.00000000E+00  0.00000000E+00
  0.00000000E+00  0.00000000E+00  0.00000000E+00
  0.00000000E+00  0.00000000E+00  0.00000000E+00
  0.00000000E+00  0.00000000E+00  0.00000000E+00
  0.00000000E+00  0.00000000E+00  0.00000000E+00
  0.00000000E+00  0.00000000E+00  0.00000000E+00
  0.00000000E+00  0.00000000E+00  0.00000000E+00
  0.00000000E+00  0.00000000E+00  0.00000000E+00
  0.00000000E+00  0.00000000E+00  0.00000000E+00
  0.00000000E+00  0.00000000E+00  0.00000000E+00
  0.00000000E+00  0.00000000E+00  0.00000000E+00
  0.00000000E+00  0.00000000E+00  0.00000000E+00
  0.00000000E+00  0.00000000E+00  0.00000000E+00
  0.00000000E+00  0.00000000E+00  0.00000000E+00
  0.00000000E+00  0.00000000E+00  0.00000000E+00
  0.00000000E+00  0.00000000E+00  0.00000000E+00
  0.00000000E+00  0.00000000E+00  0.00000000E+00
  0.00000000E+00  0.00000000E+00  0.00000000E+00
  0.00000000E+00  0.00000000E+00  0.00000000E+00
  0.00000000E+00  0.00000000E+00  0.00000000E+00
