C3 H3 Co O6, H5 N2                      
   1.00000000000000     
     8.6253183959334745    0.00000000000000000    0.0000000000000000
     0.0000132998579169    7.7269219114900949    0.0000000000000000
     0.0000000000000000    0.0000000000000000   11.4633570396803606
   Co   O    C    H    N 
     4    24    12    32     8
Direct
  0.4630666302898705  0.4998915008980652  0.5075922263369400
  0.5369333697101295  0.5001084991019351  0.0075922263369399
  0.9630665594994774  0.0001086712405804  0.5075922826168318
  0.0369334405005227  0.9998913287594196  0.0075922826168317
  0.3718810883767023  0.7320230599670245  0.4385379683288926
  0.6281189116232977  0.2679769400329685  0.9385379383288899
  0.8718805146399338  0.7679768994366584  0.4385391464664068
  0.1281194853600660  0.2320231005633418  0.9385391164664045
  0.1797701668787334  0.9263057250815858  0.4397418915459582
  0.8202298481212711  0.0736942749184141  0.9397419215459535
  0.6797700946142161  0.5736950064682239  0.4397416614135050
  0.3202299053857835  0.4263049935317761  0.9397416914135003
  0.4402335911236320  0.3539990121451675  0.3522341819176658
  0.5597663788763725  0.6460009878548324  0.8522341519176705
  0.9402320542528060  0.1460010511548681  0.3522341743376541
  0.0597679757471896  0.8539989488451321  0.8522341443376587
  0.4943754110099227  0.3598740153910464  0.1613290015188004
  0.5056245589900747  0.6401259546089511  0.6613290015188001
  0.9943745630951354  0.1401259548106177  0.1613289520775353
  0.0056254669048670  0.8598740751893845  0.6613289520775354
  0.2482791039907650  0.4224735237734000  0.5810795370426740
  0.7517208960092420  0.5775265062266023  0.0810795370426742
  0.7482788324612236  0.0775253574113623  0.5810794265400929
  0.2517211675387694  0.9224746125886354  0.0810794265400928
  0.0548403284045396  0.2290295828487464  0.5789009946651120
  0.9451596485954622  0.7709704321512515  0.0789009946651122
  0.5548401039593392  0.2709707588996549  0.5789020539356268
  0.4451599260406562  0.7290292411003521  0.0789020539356269
  0.2348779621951085  0.7796118462068369  0.4661401022639490
  0.7651220378048916  0.2203881537931626  0.9661401022639492
  0.7348771866520599  0.7203886012037396  0.4661403276056709
  0.2651228133479399  0.2796113987962605  0.9661403276056711
  0.4670482742423100  0.4351887301727679  0.2574069552930429
  0.5329516957576873  0.5648112698272250  0.7574069252930405
  0.9670475262054695  0.0648112409860932  0.2574069801601178
  0.0329525037945329  0.9351887590139067  0.7574069501601154
  0.1793051880381376  0.2914369157767167  0.5376882503730902
  0.8206947969618645  0.7085630842232764  0.0376882503730899
  0.6793046467810790  0.2085626304819361  0.5376886395442679
  0.3206953532189210  0.7914373695180712  0.0376886395442679
  0.1623257034371368  0.6882936918934662  0.5160673617280648
  0.8376742965628632  0.3117063081065337  0.0160673617280646
  0.6623242339351968  0.8117066668020281  0.5160674593544172
  0.3376757660648032  0.1882933331979719  0.0160674593544173
  0.4660707259898344  0.5777557247525241  0.2598487643914738
  0.5339292740101657  0.4222442752474756  0.7598487643914738
  0.9660704314231043  0.9222440909704230  0.2598488194683164
  0.0339295685768955  0.0777559090295769  0.7598488194683163
  0.2311102740407342  0.2293884356129599  0.4603415842234975
  0.7688897109592683  0.7706115493870355  0.9603415542234948
  0.7311094017852653  0.2706112838724094  0.4603419703148443
  0.2688905982147349  0.7293887161275907  0.9603419403148418
  0.6028935441967644  0.1089997717906849  0.1797451589751202
  0.3971064558032358  0.8910001992092876  0.6797451449751192
  0.1028938752932662  0.3909996577442479  0.1797447484933372
  0.8971061247067340  0.6090003712557653  0.6797447344933361
  0.5844379149929826  0.8968494778051120  0.1667040473671544
  0.4155620850070175  0.1031505151948837  0.6667040183671555
  0.0844375137966369  0.6031497726865945  0.1667041656410548
  0.9155624862033630  0.3968502273134055  0.6667041366410561
  0.3529279704832722  0.9881283081117319  0.2166081376687653
  0.6470719995167252  0.0118716678882660  0.7166081076687629
  0.8529281241972116  0.5118726333403171  0.2166081357459067
  0.1470719058027906  0.4881273966596856  0.7166081057459039
  0.4303123353987179  0.1289907147860835  0.3170495850827613
  0.5696876946012919  0.8710092772139161  0.8170496150827570
  0.9303125184398204  0.3710092915807269  0.3170497683500718
  0.0696874515601698  0.6289907084192730  0.8170497983500669
  0.4288198097871390  0.9098349598169645  0.3425717865072394
  0.5711801902128613  0.0901650371830319  0.8425717565072510
  0.9288194828264190  0.5901647925905281  0.3425719376115218
  0.0711805171735808  0.4098352074094718  0.8425719076115337
  0.5936930516299278  0.9958061077944891  0.2264774964026325
  0.4063069483700721  0.0041939052055012  0.7264774814026277
  0.0936931169978439  0.5041928859544512  0.2264775088781491
  0.9063068830021561  0.4958071140455563  0.7264774938781444
  0.4408866186076858  0.0058422022462775  0.2788314020349582
  0.5591133513923116  0.9941577847537106  0.7788314020349439
  0.9408867317726128  0.4941576680088635  0.2788314877768543
  0.0591132982273897  0.5058423319911362  0.7788314877768400
 
  0.00000000E+00  0.00000000E+00  0.00000000E+00
  0.00000000E+00  0.00000000E+00  0.00000000E+00
  0.00000000E+00  0.00000000E+00  0.00000000E+00
  0.00000000E+00  0.00000000E+00  0.00000000E+00
  0.00000000E+00  0.00000000E+00  0.00000000E+00
  0.00000000E+00  0.00000000E+00  0.00000000E+00
  0.00000000E+00  0.00000000E+00  0.00000000E+00
  0.00000000E+00  0.00000000E+00  0.00000000E+00
  0.00000000E+00  0.00000000E+00  0.00000000E+00
  0.00000000E+00  0.00000000E+00  0.00000000E+00
  0.00000000E+00  0.00000000E+00  0.00000000E+00
  0.00000000E+00  0.00000000E+00  0.00000000E+00
  0.00000000E+00  0.00000000E+00  0.00000000E+00
  0.00000000E+00  0.00000000E+00  0.00000000E+00
  0.00000000E+00  0.00000000E+00  0.00000000E+00
  0.00000000E+00  0.00000000E+00  0.00000000E+00
  0.00000000E+00  0.00000000E+00  0.00000000E+00
  0.00000000E+00  0.00000000E+00  0.00000000E+00
  0.00000000E+00  0.00000000E+00  0.00000000E+00
  0.00000000E+00  0.00000000E+00  0.00000000E+00
  0.00000000E+00  0.00000000E+00  0.00000000E+00
  0.00000000E+00  0.00000000E+00  0.00000000E+00
  0.00000000E+00  0.00000000E+00  0.00000000E+00
  0.00000000E+00  0.00000000E+00  0.00000000E+00
  0.00000000E+00  0.00000000E+00  0.00000000E+00
  0.00000000E+00  0.00000000E+00  0.00000000E+00
  0.00000000E+00  0.00000000E+00  0.00000000E+00
  0.00000000E+00  0.00000000E+00  0.00000000E+00
  0.00000000E+00  0.00000000E+00  0.00000000E+00
  0.00000000E+00  0.00000000E+00  0.00000000E+00
  0.00000000E+00  0.00000000E+00  0.00000000E+00
  0.00000000E+00  0.00000000E+00  0.00000000E+00
  0.00000000E+00  0.00000000E+00  0.00000000E+00
  0.00000000E+00  0.00000000E+00  0.00000000E+00
  0.00000000E+00  0.00000000E+00  0.00000000E+00
  0.00000000E+00  0.00000000E+00  0.00000000E+00
  0.00000000E+00  0.00000000E+00  0.00000000E+00
  0.00000000E+00  0.00000000E+00  0.00000000E+00
  0.00000000E+00  0.00000000E+00  0.00000000E+00
  0.00000000E+00  0.00000000E+00  0.00000000E+00
  0.00000000E+00  0.00000000E+00  0.00000000E+00
  0.00000000E+00  0.00000000E+00  0.00000000E+00
  0.00000000E+00  0.00000000E+00  0.00000000E+00
  0.00000000E+00  0.00000000E+00  0.00000000E+00
  0.00000000E+00  0.00000000E+00  0.00000000E+00
  0.00000000E+00  0.00000000E+00  0.00000000E+00
  0.00000000E+00  0.00000000E+00  0.00000000E+00
  0.00000000E+00  0.00000000E+00  0.00000000E+00
  0.00000000E+00  0.00000000E+00  0.00000000E+00
  0.00000000E+00  0.00000000E+00  0.00000000E+00
  0.00000000E+00  0.00000000E+00  0.00000000E+00
  0.00000000E+00  0.00000000E+00  0.00000000E+00
  0.00000000E+00  0.00000000E+00  0.00000000E+00
  0.00000000E+00  0.00000000E+00  0.00000000E+00
  0.00000000E+00  0.00000000E+00  0.00000000E+00
  0.00000000E+00  0.00000000E+00  0.00000000E+00
  0.00000000E+00  0.00000000E+00  0.00000000E+00
  0.00000000E+00  0.00000000E+00  0.00000000E+00
  0.00000000E+00  0.00000000E+00  0.00000000E+00
  0.00000000E+00  0.00000000E+00  0.00000000E+00
  0.00000000E+00  0.00000000E+00  0.00000000E+00
  0.00000000E+00  0.00000000E+00  0.00000000E+00
  0.00000000E+00  0.00000000E+00  0.00000000E+00
  0.00000000E+00  0.00000000E+00  0.00000000E+00
  0.00000000E+00  0.00000000E+00  0.00000000E+00
  0.00000000E+00  0.00000000E+00  0.00000000E+00
  0.00000000E+00  0.00000000E+00  0.00000000E+00
  0.00000000E+00  0.00000000E+00  0.00000000E+00
  0.00000000E+00  0.00000000E+00  0.00000000E+00
  0.00000000E+00  0.00000000E+00  0.00000000E+00
  0.00000000E+00  0.00000000E+00  0.00000000E+00
  0.00000000E+00  0.00000000E+00  0.00000000E+00
  0.00000000E+00  0.00000000E+00  0.00000000E+00
  0.00000000E+00  0.00000000E+00  0.00000000E+00
  0.00000000E+00  0.00000000E+00  0.00000000E+00
  0.00000000E+00  0.00000000E+00  0.00000000E+00
  0.00000000E+00  0.00000000E+00  0.00000000E+00
  0.00000000E+00  0.00000000E+00  0.00000000E+00
  0.00000000E+00  0.00000000E+00  0.00000000E+00
  0.00000000E+00  0.00000000E+00  0.00000000E+00
