isodistort-output01                     
    1.000000000000000     
     8.4666775829672485   -0.00000000000000000    0.0000000000000000
    -0.0000000000000000   8.0376587888158380    0.0000000000000000
     0.0000000000000000    0.0000000000000000   12.0695269568808374
   Mn   O    C    H    N 
     4    24    12    32     8
Direct
  0.5000000000000000  0.5000000000000000  0.0000799889999996
  0.5000000000000000  0.5000000000000000  0.5000799889999996
 -0.0000000000000000 -0.0000000000000000  0.0000799889999996
 -0.0000000000000000 -0.0000000000000000  0.5000799889999996
  0.0720560203277816  0.7579488561001341  0.0674710242670436
  0.9279439796722184  0.2420511438998732  0.5674710242670430
  0.5720548990843540  0.7420523369106783  0.0674703879870823
  0.4279451009156452  0.2579476630893138  0.5674703879870826
  0.5720548990843540  0.7420523369106783  0.4326895910129205
  0.4279451009156452  0.2579476630893138  0.9326895910129132
  0.0720560203277816  0.7579488561001341  0.4326889547329592
  0.9279439796722184  0.2420511438998732  0.9326889547329528
  0.2617149513827723  0.5613899104612164  0.0693330254369785
  0.7382850486172349  0.4386100895387838  0.5693330254369784
  0.7617150232249397  0.9386108025210887  0.0693330542040711
  0.2382849767750594  0.0613891974789117  0.5693330542040705
  0.7617150232249397  0.9386108025210887  0.4308269247959315
  0.2382849767750594  0.0613891974789117  0.9308269247959323
  0.2617149513827723  0.5613899104612164  0.4308269535630246
  0.7382850486172349  0.4386100895387838  0.9308269535630245
  0.9549974214888399  0.8696243149751290  0.8430407044501238
  0.0450025785111605  0.1303756850248716  0.3430407044501240
  0.4549977701821775  0.6303741279774449  0.8430408027879773
  0.5450022298178225  0.3696258720225554  0.3430408027879771
  0.4549977701821775  0.6303740679774470  0.6571192352120269
  0.5450022298178225  0.3696259320225532  0.1571192352120273
  0.9549974214888399  0.8696243749751269  0.6571193335498804
  0.0450025195111592  0.1303756250248737  0.1571193335498801
  0.1958058003580752  0.6892262359258331  0.0287948155718029
  0.8041941996419257  0.3107737640741585  0.5287948745718046
  0.6958055367470186  0.8107744324916387  0.0287947708403286
  0.3041944632529809  0.1892255675083685  0.5287948298403298
  0.6958055367470186  0.8107744324916387  0.4713652081596671
  0.3041944632529809  0.1892255675083685  0.9713652081596673
  0.1958058003580752  0.6892262359258331  0.4713651634281930
  0.8041941996419257  0.3107737640741585  0.9713651634281925
  0.0509028170392367  0.0561155536633210  0.2500799889999996
  0.9490971829607641  0.9438844463366785  0.7500799889999996
  0.5509023995476101  0.4438857600172498  0.2500799889999996
  0.4490976004523977  0.5561142399827498  0.7500799889999996
  0.2494204325132137  0.7463372579786556  0.9541851046237341
  0.7505795674867852  0.2536627420213445  0.4541851046237341
  0.7494212085665367  0.7536631382282389  0.9541854565949438
  0.2505787914334637  0.2463368617717611  0.4541854565949429
  0.7494212085665367  0.7536631382282389  0.5459745224050591
  0.2505787914334637  0.2463368617717611  0.0459745224050596
  0.2494204325132137  0.7463372579786556  0.5459748743762688
  0.7505795674867852  0.2536627420213445  0.0459748743762685
  0.0610534188733558  0.9190339061451184  0.2500799889999996
  0.9389465811266505  0.0809660938548889  0.7500799889999996
  0.5610529865172509  0.5809681588630962  0.2500799889999996
  0.4389470134827415  0.4190318411369052  0.7500799889999996
  0.4620719632854541  0.8661115662125155  0.8169072984587532
  0.5379280367145465  0.1338884337874839  0.3169072984587522
  0.9620720506265943  0.6338880336177598  0.8169071250511678
  0.0379279493734056  0.3661119663822476  0.3169071250511689
  0.9620720506265943  0.6338880926177611  0.6832528539488351
  0.0379279493734056  0.3661119073822462  0.1832528539488341
  0.4620719632854541  0.8661115072125142  0.6832526805412497
  0.5379280367145465  0.1338884927874852  0.1832526805412505
  0.6592220604675108  0.0008620463612722  0.2500799889999996
  0.3407779395324957  0.9991379536387279  0.7500799889999996
  0.1592220692718644  0.4991379371177037  0.2500799889999996
  0.8407779307281354  0.5008620628822973  0.7500799889999996
  0.5549788019003133  0.1417565614427449  0.6820217272975962
  0.4450211980996797  0.8582434385572552  0.1820217272975970
  0.0549772265067719  0.3582411414295188  0.6820217098512980
  0.9450227734932426  0.6417588585704744  0.1820217098512984
  0.0549772265067719  0.3582411414295188  0.8181382691487049
  0.9450227734932426  0.6417588585704744  0.3181382691487047
  0.5549788019003133  0.1417565614427449  0.8181382517024066
  0.4450211980996797  0.8582434385572552  0.3181382517024060
  0.5474683538867177  0.0528029716853069  0.2500799889999996
  0.4525316461132830  0.9471970283146928  0.7500799889999996
  0.0474692852184531  0.4471985303798774  0.2500799889999996
  0.9525307147815464  0.5528014696201224  0.7500799889999996
  0.4208713564589336  0.9321528982682052  0.2500799889999996
  0.5791286435410602  0.0678471017317948  0.7500799889999996
  0.9208722780690936  0.5678487486920450  0.2500799889999996
  0.0791277219308996  0.4321512513079629  0.7500799889999996
 
  0.00000000E+00  0.00000000E+00  0.00000000E+00
  0.00000000E+00  0.00000000E+00  0.00000000E+00
  0.00000000E+00  0.00000000E+00  0.00000000E+00
  0.00000000E+00  0.00000000E+00  0.00000000E+00
  0.00000000E+00  0.00000000E+00  0.00000000E+00
  0.00000000E+00  0.00000000E+00  0.00000000E+00
  0.00000000E+00  0.00000000E+00  0.00000000E+00
  0.00000000E+00  0.00000000E+00  0.00000000E+00
  0.00000000E+00  0.00000000E+00  0.00000000E+00
  0.00000000E+00  0.00000000E+00  0.00000000E+00
  0.00000000E+00  0.00000000E+00  0.00000000E+00
  0.00000000E+00  0.00000000E+00  0.00000000E+00
  0.00000000E+00  0.00000000E+00  0.00000000E+00
  0.00000000E+00  0.00000000E+00  0.00000000E+00
  0.00000000E+00  0.00000000E+00  0.00000000E+00
  0.00000000E+00  0.00000000E+00  0.00000000E+00
  0.00000000E+00  0.00000000E+00  0.00000000E+00
  0.00000000E+00  0.00000000E+00  0.00000000E+00
  0.00000000E+00  0.00000000E+00  0.00000000E+00
  0.00000000E+00  0.00000000E+00  0.00000000E+00
  0.00000000E+00  0.00000000E+00  0.00000000E+00
  0.00000000E+00  0.00000000E+00  0.00000000E+00
  0.00000000E+00  0.00000000E+00  0.00000000E+00
  0.00000000E+00  0.00000000E+00  0.00000000E+00
  0.00000000E+00  0.00000000E+00  0.00000000E+00
  0.00000000E+00  0.00000000E+00  0.00000000E+00
  0.00000000E+00  0.00000000E+00  0.00000000E+00
  0.00000000E+00  0.00000000E+00  0.00000000E+00
  0.00000000E+00  0.00000000E+00  0.00000000E+00
  0.00000000E+00  0.00000000E+00  0.00000000E+00
  0.00000000E+00  0.00000000E+00  0.00000000E+00
  0.00000000E+00  0.00000000E+00  0.00000000E+00
  0.00000000E+00  0.00000000E+00  0.00000000E+00
  0.00000000E+00  0.00000000E+00  0.00000000E+00
  0.00000000E+00  0.00000000E+00  0.00000000E+00
  0.00000000E+00  0.00000000E+00  0.00000000E+00
  0.00000000E+00  0.00000000E+00  0.00000000E+00
  0.00000000E+00  0.00000000E+00  0.00000000E+00
  0.00000000E+00  0.00000000E+00  0.00000000E+00
  0.00000000E+00  0.00000000E+00  0.00000000E+00
  0.00000000E+00  0.00000000E+00  0.00000000E+00
  0.00000000E+00  0.00000000E+00  0.00000000E+00
  0.00000000E+00  0.00000000E+00  0.00000000E+00
  0.00000000E+00  0.00000000E+00  0.00000000E+00
  0.00000000E+00  0.00000000E+00  0.00000000E+00
  0.00000000E+00  0.00000000E+00  0.00000000E+00
  0.00000000E+00  0.00000000E+00  0.00000000E+00
  0.00000000E+00  0.00000000E+00  0.00000000E+00
  0.00000000E+00  0.00000000E+00  0.00000000E+00
  0.00000000E+00  0.00000000E+00  0.00000000E+00
  0.00000000E+00  0.00000000E+00  0.00000000E+00
  0.00000000E+00  0.00000000E+00  0.00000000E+00
  0.00000000E+00  0.00000000E+00  0.00000000E+00
  0.00000000E+00  0.00000000E+00  0.00000000E+00
  0.00000000E+00  0.00000000E+00  0.00000000E+00
  0.00000000E+00  0.00000000E+00  0.00000000E+00
  0.00000000E+00  0.00000000E+00  0.00000000E+00
  0.00000000E+00  0.00000000E+00  0.00000000E+00
  0.00000000E+00  0.00000000E+00  0.00000000E+00
  0.00000000E+00  0.00000000E+00  0.00000000E+00
  0.00000000E+00  0.00000000E+00  0.00000000E+00
  0.00000000E+00  0.00000000E+00  0.00000000E+00
  0.00000000E+00  0.00000000E+00  0.00000000E+00
  0.00000000E+00  0.00000000E+00  0.00000000E+00
  0.00000000E+00  0.00000000E+00  0.00000000E+00
  0.00000000E+00  0.00000000E+00  0.00000000E+00
  0.00000000E+00  0.00000000E+00  0.00000000E+00
  0.00000000E+00  0.00000000E+00  0.00000000E+00
  0.00000000E+00  0.00000000E+00  0.00000000E+00
  0.00000000E+00  0.00000000E+00  0.00000000E+00
  0.00000000E+00  0.00000000E+00  0.00000000E+00
  0.00000000E+00  0.00000000E+00  0.00000000E+00
  0.00000000E+00  0.00000000E+00  0.00000000E+00
  0.00000000E+00  0.00000000E+00  0.00000000E+00
  0.00000000E+00  0.00000000E+00  0.00000000E+00
  0.00000000E+00  0.00000000E+00  0.00000000E+00
  0.00000000E+00  0.00000000E+00  0.00000000E+00
  0.00000000E+00  0.00000000E+00  0.00000000E+00
  0.00000000E+00  0.00000000E+00  0.00000000E+00
  0.00000000E+00  0.00000000E+00  0.00000000E+00
