findsym-output
1.0
        8.0376586914         0.0000000000         0.0000000000
        0.0000000000         8.4666776657         0.0000000000
        0.0000000000         0.0000000000        12.0695266724
   Mn    O    C    H    N
    4   24   12   32    8
Direct
     0.500000000         0.000000000         0.000000000
     0.000000000         0.500000000         0.000000000
     0.500000000         0.000000000         0.500000000
     0.000000000         0.500000000         0.500000000
     0.257950008         0.927940011         0.567390025
     0.742049992         0.072059996         0.432609975
     0.757950008         0.572059989         0.432609975
     0.242049992         0.427940011         0.567390025
     0.742049992         0.072059996         0.067390025
     0.257950008         0.927940011         0.932609975
     0.242049992         0.427940011         0.932609975
     0.757950008         0.572059989         0.067390025
     0.061390001         0.738279998         0.569249988
     0.938610017         0.261720002         0.430750012
     0.561389983         0.761720002         0.430750012
     0.438609987         0.238279998         0.569249988
     0.938610017         0.261720002         0.069249988
     0.061390001         0.738279998         0.930750012
     0.438609987         0.238279998         0.930750012
     0.561389983         0.761720002         0.069249988
     0.369619995         0.045000002         0.342960000
     0.630380034         0.954999983         0.657040000
     0.869619966         0.454999983         0.657040000
     0.130380005         0.545000017         0.342960000
     0.630380034         0.954999983         0.842960000
     0.369619995         0.045000002         0.157040000
     0.130380005         0.545000017         0.157040000
     0.869619966         0.454999983         0.842960000
     0.189229995         0.804189980         0.528710008
     0.810770035         0.195810020         0.471289992
     0.689229965         0.695810020         0.471289992
     0.310770005         0.304189980         0.528710008
     0.810770035         0.195810020         0.028710008
     0.189229995         0.804189980         0.971289992
     0.310770005         0.304189980         0.971289992
     0.689229965         0.695810020         0.028710008
     0.443890005         0.050900001         0.250000000
     0.556110024         0.949100018         0.750000000
     0.943889976         0.449099988         0.750000000
     0.056109995         0.550899982         0.250000000
     0.246340007         0.750580013         0.454109997
     0.753659964         0.249419987         0.545889974
     0.746340036         0.749419987         0.545889974
     0.253659993         0.250580013         0.454109997
     0.753659964         0.249419987         0.954110026
     0.246340007         0.750580013         0.045890003
     0.253659993         0.250580013         0.045890003
     0.746340036         0.749419987         0.954110026
     0.580969989         0.061050002         0.250000000
     0.419030011         0.938950002         0.750000000
     0.080969989         0.438950002         0.750000000
     0.919030011         0.561049998         0.250000000
     0.366109997         0.537930012         0.316830009
     0.633890033         0.462069988         0.683169961
     0.866109967         0.962069988         0.683169961
     0.133890003         0.037930012         0.316830009
     0.633890033         0.462069988         0.816830039
     0.366109997         0.537930012         0.183169991
     0.133890003         0.037930012         0.183169991
     0.866109967         0.962069988         0.816830039
     0.499139994         0.659219980         0.250000000
     0.500859976         0.340780020         0.750000000
     0.999140024         0.840780020         0.750000000
     0.000860006         0.159219980         0.250000000
     0.641759992         0.445019990         0.181940004
     0.358240008         0.554980040         0.818059981
     0.141759992         0.054980010         0.818059981
     0.858240008         0.945019960         0.181940004
     0.358240008         0.554980040         0.681940019
     0.641759992         0.445019990         0.318059981
     0.858240008         0.945019960         0.318059981
     0.141759992         0.054980010         0.681940019
     0.447200000         0.547469974         0.250000000
     0.552800000         0.452530026         0.750000000
     0.947200000         0.952530026         0.750000000
     0.052800000         0.047469974         0.250000000
     0.567849994         0.420870006         0.250000000
     0.432150006         0.579129994         0.750000000
     0.067849994         0.079129994         0.750000000
     0.932150006         0.920870006         0.250000000
